p cnf 561 35511
97 98 99 100 101 102 103 104 105 106 107 108 109 110 111 112 113 114 115 116 117 118 119 120 0
-97 -98 0
-97 -99 0
-97 -100 0
-97 -101 0
-97 -102 0
-97 -103 0
-97 -104 0
-97 -105 0
-97 -106 0
-97 -107 0
-97 -108 0
-97 -109 0
-97 -110 0
-97 -111 0
-97 -112 0
-97 -113 0
-97 -114 0
-97 -115 0
-97 -116 0
-97 -117 0
-97 -118 0
-97 -119 0
-97 -120 0
-98 -99 0
-98 -100 0
-98 -101 0
-98 -102 0
-98 -103 0
-98 -104 0
-98 -105 0
-98 -106 0
-98 -107 0
-98 -108 0
-98 -109 0
-98 -110 0
-98 -111 0
-98 -112 0
-98 -113 0
-98 -114 0
-98 -115 0
-98 -116 0
-98 -117 0
-98 -118 0
-98 -119 0
-98 -120 0
-99 -100 0
-99 -101 0
-99 -102 0
-99 -103 0
-99 -104 0
-99 -105 0
-99 -106 0
-99 -107 0
-99 -108 0
-99 -109 0
-99 -110 0
-99 -111 0
-99 -112 0
-99 -113 0
-99 -114 0
-99 -115 0
-99 -116 0
-99 -117 0
-99 -118 0
-99 -119 0
-99 -120 0
-100 -101 0
-100 -102 0
-100 -103 0
-100 -104 0
-100 -105 0
-100 -106 0
-100 -107 0
-100 -108 0
-100 -109 0
-100 -110 0
-100 -111 0
-100 -112 0
-100 -113 0
-100 -114 0
-100 -115 0
-100 -116 0
-100 -117 0
-100 -118 0
-100 -119 0
-100 -120 0
-101 -102 0
-101 -103 0
-101 -104 0
-101 -105 0
-101 -106 0
-101 -107 0
-101 -108 0
-101 -109 0
-101 -110 0
-101 -111 0
-101 -112 0
-101 -113 0
-101 -114 0
-101 -115 0
-101 -116 0
-101 -117 0
-101 -118 0
-101 -119 0
-101 -120 0
-102 -103 0
-102 -104 0
-102 -105 0
-102 -106 0
-102 -107 0
-102 -108 0
-102 -109 0
-102 -110 0
-102 -111 0
-102 -112 0
-102 -113 0
-102 -114 0
-102 -115 0
-102 -116 0
-102 -117 0
-102 -118 0
-102 -119 0
-102 -120 0
-103 -104 0
-103 -105 0
-103 -106 0
-103 -107 0
-103 -108 0
-103 -109 0
-103 -110 0
-103 -111 0
-103 -112 0
-103 -113 0
-103 -114 0
-103 -115 0
-103 -116 0
-103 -117 0
-103 -118 0
-103 -119 0
-103 -120 0
-104 -105 0
-104 -106 0
-104 -107 0
-104 -108 0
-104 -109 0
-104 -110 0
-104 -111 0
-104 -112 0
-104 -113 0
-104 -114 0
-104 -115 0
-104 -116 0
-104 -117 0
-104 -118 0
-104 -119 0
-104 -120 0
-105 -106 0
-105 -107 0
-105 -108 0
-105 -109 0
-105 -110 0
-105 -111 0
-105 -112 0
-105 -113 0
-105 -114 0
-105 -115 0
-105 -116 0
-105 -117 0
-105 -118 0
-105 -119 0
-105 -120 0
-106 -107 0
-106 -108 0
-106 -109 0
-106 -110 0
-106 -111 0
-106 -112 0
-106 -113 0
-106 -114 0
-106 -115 0
-106 -116 0
-106 -117 0
-106 -118 0
-106 -119 0
-106 -120 0
-107 -108 0
-107 -109 0
-107 -110 0
-107 -111 0
-107 -112 0
-107 -113 0
-107 -114 0
-107 -115 0
-107 -116 0
-107 -117 0
-107 -118 0
-107 -119 0
-107 -120 0
-108 -109 0
-108 -110 0
-108 -111 0
-108 -112 0
-108 -113 0
-108 -114 0
-108 -115 0
-108 -116 0
-108 -117 0
-108 -118 0
-108 -119 0
-108 -120 0
-109 -110 0
-109 -111 0
-109 -112 0
-109 -113 0
-109 -114 0
-109 -115 0
-109 -116 0
-109 -117 0
-109 -118 0
-109 -119 0
-109 -120 0
-110 -111 0
-110 -112 0
-110 -113 0
-110 -114 0
-110 -115 0
-110 -116 0
-110 -117 0
-110 -118 0
-110 -119 0
-110 -120 0
-111 -112 0
-111 -113 0
-111 -114 0
-111 -115 0
-111 -116 0
-111 -117 0
-111 -118 0
-111 -119 0
-111 -120 0
-112 -113 0
-112 -114 0
-112 -115 0
-112 -116 0
-112 -117 0
-112 -118 0
-112 -119 0
-112 -120 0
-113 -114 0
-113 -115 0
-113 -116 0
-113 -117 0
-113 -118 0
-113 -119 0
-113 -120 0
-114 -115 0
-114 -116 0
-114 -117 0
-114 -118 0
-114 -119 0
-114 -120 0
-115 -116 0
-115 -117 0
-115 -118 0
-115 -119 0
-115 -120 0
-116 -117 0
-116 -118 0
-116 -119 0
-116 -120 0
-117 -118 0
-117 -119 0
-117 -120 0
-118 -119 0
-118 -120 0
-119 -120 0
-97 -1 0
-97 -2 0
-97 -3 0
-97 4 0
-97 -5 0
-97 -6 0
-97 -7 0
-97 8 0
-97 -9 0
-97 -10 0
-97 -11 0
-97 12 0
-97 -13 0
-97 -14 0
-97 -15 0
-97 16 0
-98 -1 0
-98 2 0
-98 -3 0
-98 -4 0
-98 -5 0
-98 6 0
-98 -7 0
-98 -8 0
-98 -9 0
-98 10 0
-98 -11 0
-98 -12 0
-98 -13 0
-98 14 0
-98 -15 0
-98 -16 0
-99 -1 0
-99 -2 0
-99 3 0
-99 -4 0
-99 -5 0
-99 -6 0
-99 7 0
-99 -8 0
-99 -9 0
-99 -10 0
-99 11 0
-99 -12 0
-99 -13 0
-99 -14 0
-99 15 0
-99 -16 0
-100 1 0
-100 -2 0
-100 -3 0
-100 -4 0
-100 5 0
-100 -6 0
-100 -7 0
-100 -8 0
-100 9 0
-100 -10 0
-100 -11 0
-100 -12 0
-100 13 0
-100 -14 0
-100 -15 0
-100 -16 0
-101 -1 0
-101 -2 0
-101 -3 0
-101 -4 0
-101 -5 0
-101 6 0
-101 -7 0
-101 8 0
-101 -9 0
-101 -10 0
-101 -11 0
-101 -12 0
-101 -13 0
-101 14 0
-101 -15 0
-101 16 0
-102 -1 0
-102 2 0
-102 -3 0
-102 4 0
-102 -5 0
-102 -6 0
-102 -7 0
-102 -8 0
-102 -9 0
-102 10 0
-102 -11 0
-102 12 0
-102 -13 0
-102 -14 0
-102 -15 0
-102 -16 0
-103 -1 0
-103 -2 0
-103 -3 0
-103 -4 0
-103 5 0
-103 -6 0
-103 7 0
-103 -8 0
-103 -9 0
-103 -10 0
-103 -11 0
-103 -12 0
-103 13 0
-103 -14 0
-103 15 0
-103 -16 0
-104 1 0
-104 -2 0
-104 3 0
-104 -4 0
-104 -5 0
-104 -6 0
-104 -7 0
-104 -8 0
-104 9 0
-104 -10 0
-104 11 0
-104 -12 0
-104 -13 0
-104 -14 0
-104 -15 0
-104 -16 0
-105 -1 0
-105 -2 0
-105 -3 0
-105 -4 0
-105 -5 0
-105 -6 0
-105 -7 0
-105 -8 0
-105 -9 0
-105 10 0
-105 -11 0
-105 12 0
-105 -13 0
-105 14 0
-105 -15 0
-105 16 0
-106 -1 0
-106 2 0
-106 -3 0
-106 4 0
-106 -5 0
-106 6 0
-106 -7 0
-106 8 0
-106 -9 0
-106 -10 0
-106 -11 0
-106 -12 0
-106 -13 0
-106 -14 0
-106 -15 0
-106 -16 0
-107 -1 0
-107 -2 0
-107 -3 0
-107 -4 0
-107 -5 0
-107 -6 0
-107 -7 0
-107 -8 0
-107 9 0
-107 -10 0
-107 11 0
-107 -12 0
-107 13 0
-107 -14 0
-107 15 0
-107 -16 0
-108 1 0
-108 -2 0
-108 3 0
-108 -4 0
-108 5 0
-108 -6 0
-108 7 0
-108 -8 0
-108 -9 0
-108 -10 0
-108 -11 0
-108 -12 0
-108 -13 0
-108 -14 0
-108 -15 0
-108 -16 0
-109 -1 0
-109 -2 0
-109 -3 0
-109 -4 0
-109 -5 0
-109 -6 0
-109 7 0
-109 8 0
-109 -9 0
-109 -10 0
-109 -11 0
-109 -12 0
-109 -13 0
-109 -14 0
-109 15 0
-109 16 0
-110 -1 0
-110 -2 0
-110 3 0
-110 4 0
-110 -5 0
-110 -6 0
-110 -7 0
-110 -8 0
-110 -9 0
-110 -10 0
-110 11 0
-110 12 0
-110 -13 0
-110 -14 0
-110 -15 0
-110 -16 0
-111 -1 0
-111 -2 0
-111 -3 0
-111 -4 0
-111 5 0
-111 6 0
-111 -7 0
-111 -8 0
-111 -9 0
-111 -10 0
-111 -11 0
-111 -12 0
-111 13 0
-111 14 0
-111 -15 0
-111 -16 0
-112 1 0
-112 2 0
-112 -3 0
-112 -4 0
-112 -5 0
-112 -6 0
-112 -7 0
-112 -8 0
-112 9 0
-112 10 0
-112 -11 0
-112 -12 0
-112 -13 0
-112 -14 0
-112 -15 0
-112 -16 0
-113 -1 0
-113 -2 0
-113 -3 0
-113 -4 0
-113 -5 0
-113 -6 0
-113 -7 0
-113 -8 0
-113 -9 0
-113 -10 0
-113 11 0
-113 12 0
-113 -13 0
-113 -14 0
-113 15 0
-113 16 0
-114 -1 0
-114 -2 0
-114 3 0
-114 4 0
-114 -5 0
-114 -6 0
-114 7 0
-114 8 0
-114 -9 0
-114 -10 0
-114 -11 0
-114 -12 0
-114 -13 0
-114 -14 0
-114 -15 0
-114 -16 0
-115 -1 0
-115 -2 0
-115 -3 0
-115 -4 0
-115 -5 0
-115 -6 0
-115 -7 0
-115 -8 0
-115 9 0
-115 10 0
-115 -11 0
-115 -12 0
-115 13 0
-115 14 0
-115 -15 0
-115 -16 0
-116 1 0
-116 2 0
-116 -3 0
-116 -4 0
-116 5 0
-116 6 0
-116 -7 0
-116 -8 0
-116 -9 0
-116 -10 0
-116 -11 0
-116 -12 0
-116 -13 0
-116 -14 0
-116 -15 0
-116 -16 0
-117 -1 0
-117 -2 0
-117 -3 0
-117 -4 0
-117 -5 0
-117 -6 0
-117 -7 0
-117 -8 0
-117 -9 0
-117 -10 0
-117 -11 0
-117 -12 0
-117 13 0
-117 14 0
-117 15 0
-117 16 0
-118 -1 0
-118 -2 0
-118 -3 0
-118 -4 0
-118 5 0
-118 6 0
-118 7 0
-118 8 0
-118 -9 0
-118 -10 0
-118 -11 0
-118 -12 0
-118 -13 0
-118 -14 0
-118 -15 0
-118 -16 0
-119 -1 0
-119 -2 0
-119 -3 0
-119 -4 0
-119 -5 0
-119 -6 0
-119 -7 0
-119 -8 0
-119 9 0
-119 10 0
-119 11 0
-119 12 0
-119 -13 0
-119 -14 0
-119 -15 0
-119 -16 0
-120 1 0
-120 2 0
-120 3 0
-120 4 0
-120 -5 0
-120 -6 0
-120 -7 0
-120 -8 0
-120 -9 0
-120 -10 0
-120 -11 0
-120 -12 0
-120 -13 0
-120 -14 0
-120 -15 0
-120 -16 0
121 122 123 124 125 126 127 128 129 130 131 132 133 134 135 136 137 138 139 140 141 142 143 144 145 146 147 148 149 150 151 152 153 154 155 156 157 158 159 160 0
-121 -122 0
-121 -123 0
-121 -124 0
-121 -125 0
-121 -126 0
-121 -127 0
-121 -128 0
-121 -129 0
-121 -130 0
-121 -131 0
-121 -132 0
-121 -133 0
-121 -134 0
-121 -135 0
-121 -136 0
-121 -137 0
-121 -138 0
-121 -139 0
-121 -140 0
-121 -141 0
-121 -142 0
-121 -143 0
-121 -144 0
-121 -145 0
-121 -146 0
-121 -147 0
-121 -148 0
-121 -149 0
-121 -150 0
-121 -151 0
-121 -152 0
-121 -153 0
-121 -154 0
-121 -155 0
-121 -156 0
-121 -157 0
-121 -158 0
-121 -159 0
-121 -160 0
-122 -123 0
-122 -124 0
-122 -125 0
-122 -126 0
-122 -127 0
-122 -128 0
-122 -129 0
-122 -130 0
-122 -131 0
-122 -132 0
-122 -133 0
-122 -134 0
-122 -135 0
-122 -136 0
-122 -137 0
-122 -138 0
-122 -139 0
-122 -140 0
-122 -141 0
-122 -142 0
-122 -143 0
-122 -144 0
-122 -145 0
-122 -146 0
-122 -147 0
-122 -148 0
-122 -149 0
-122 -150 0
-122 -151 0
-122 -152 0
-122 -153 0
-122 -154 0
-122 -155 0
-122 -156 0
-122 -157 0
-122 -158 0
-122 -159 0
-122 -160 0
-123 -124 0
-123 -125 0
-123 -126 0
-123 -127 0
-123 -128 0
-123 -129 0
-123 -130 0
-123 -131 0
-123 -132 0
-123 -133 0
-123 -134 0
-123 -135 0
-123 -136 0
-123 -137 0
-123 -138 0
-123 -139 0
-123 -140 0
-123 -141 0
-123 -142 0
-123 -143 0
-123 -144 0
-123 -145 0
-123 -146 0
-123 -147 0
-123 -148 0
-123 -149 0
-123 -150 0
-123 -151 0
-123 -152 0
-123 -153 0
-123 -154 0
-123 -155 0
-123 -156 0
-123 -157 0
-123 -158 0
-123 -159 0
-123 -160 0
-124 -125 0
-124 -126 0
-124 -127 0
-124 -128 0
-124 -129 0
-124 -130 0
-124 -131 0
-124 -132 0
-124 -133 0
-124 -134 0
-124 -135 0
-124 -136 0
-124 -137 0
-124 -138 0
-124 -139 0
-124 -140 0
-124 -141 0
-124 -142 0
-124 -143 0
-124 -144 0
-124 -145 0
-124 -146 0
-124 -147 0
-124 -148 0
-124 -149 0
-124 -150 0
-124 -151 0
-124 -152 0
-124 -153 0
-124 -154 0
-124 -155 0
-124 -156 0
-124 -157 0
-124 -158 0
-124 -159 0
-124 -160 0
-125 -126 0
-125 -127 0
-125 -128 0
-125 -129 0
-125 -130 0
-125 -131 0
-125 -132 0
-125 -133 0
-125 -134 0
-125 -135 0
-125 -136 0
-125 -137 0
-125 -138 0
-125 -139 0
-125 -140 0
-125 -141 0
-125 -142 0
-125 -143 0
-125 -144 0
-125 -145 0
-125 -146 0
-125 -147 0
-125 -148 0
-125 -149 0
-125 -150 0
-125 -151 0
-125 -152 0
-125 -153 0
-125 -154 0
-125 -155 0
-125 -156 0
-125 -157 0
-125 -158 0
-125 -159 0
-125 -160 0
-126 -127 0
-126 -128 0
-126 -129 0
-126 -130 0
-126 -131 0
-126 -132 0
-126 -133 0
-126 -134 0
-126 -135 0
-126 -136 0
-126 -137 0
-126 -138 0
-126 -139 0
-126 -140 0
-126 -141 0
-126 -142 0
-126 -143 0
-126 -144 0
-126 -145 0
-126 -146 0
-126 -147 0
-126 -148 0
-126 -149 0
-126 -150 0
-126 -151 0
-126 -152 0
-126 -153 0
-126 -154 0
-126 -155 0
-126 -156 0
-126 -157 0
-126 -158 0
-126 -159 0
-126 -160 0
-127 -128 0
-127 -129 0
-127 -130 0
-127 -131 0
-127 -132 0
-127 -133 0
-127 -134 0
-127 -135 0
-127 -136 0
-127 -137 0
-127 -138 0
-127 -139 0
-127 -140 0
-127 -141 0
-127 -142 0
-127 -143 0
-127 -144 0
-127 -145 0
-127 -146 0
-127 -147 0
-127 -148 0
-127 -149 0
-127 -150 0
-127 -151 0
-127 -152 0
-127 -153 0
-127 -154 0
-127 -155 0
-127 -156 0
-127 -157 0
-127 -158 0
-127 -159 0
-127 -160 0
-128 -129 0
-128 -130 0
-128 -131 0
-128 -132 0
-128 -133 0
-128 -134 0
-128 -135 0
-128 -136 0
-128 -137 0
-128 -138 0
-128 -139 0
-128 -140 0
-128 -141 0
-128 -142 0
-128 -143 0
-128 -144 0
-128 -145 0
-128 -146 0
-128 -147 0
-128 -148 0
-128 -149 0
-128 -150 0
-128 -151 0
-128 -152 0
-128 -153 0
-128 -154 0
-128 -155 0
-128 -156 0
-128 -157 0
-128 -158 0
-128 -159 0
-128 -160 0
-129 -130 0
-129 -131 0
-129 -132 0
-129 -133 0
-129 -134 0
-129 -135 0
-129 -136 0
-129 -137 0
-129 -138 0
-129 -139 0
-129 -140 0
-129 -141 0
-129 -142 0
-129 -143 0
-129 -144 0
-129 -145 0
-129 -146 0
-129 -147 0
-129 -148 0
-129 -149 0
-129 -150 0
-129 -151 0
-129 -152 0
-129 -153 0
-129 -154 0
-129 -155 0
-129 -156 0
-129 -157 0
-129 -158 0
-129 -159 0
-129 -160 0
-130 -131 0
-130 -132 0
-130 -133 0
-130 -134 0
-130 -135 0
-130 -136 0
-130 -137 0
-130 -138 0
-130 -139 0
-130 -140 0
-130 -141 0
-130 -142 0
-130 -143 0
-130 -144 0
-130 -145 0
-130 -146 0
-130 -147 0
-130 -148 0
-130 -149 0
-130 -150 0
-130 -151 0
-130 -152 0
-130 -153 0
-130 -154 0
-130 -155 0
-130 -156 0
-130 -157 0
-130 -158 0
-130 -159 0
-130 -160 0
-131 -132 0
-131 -133 0
-131 -134 0
-131 -135 0
-131 -136 0
-131 -137 0
-131 -138 0
-131 -139 0
-131 -140 0
-131 -141 0
-131 -142 0
-131 -143 0
-131 -144 0
-131 -145 0
-131 -146 0
-131 -147 0
-131 -148 0
-131 -149 0
-131 -150 0
-131 -151 0
-131 -152 0
-131 -153 0
-131 -154 0
-131 -155 0
-131 -156 0
-131 -157 0
-131 -158 0
-131 -159 0
-131 -160 0
-132 -133 0
-132 -134 0
-132 -135 0
-132 -136 0
-132 -137 0
-132 -138 0
-132 -139 0
-132 -140 0
-132 -141 0
-132 -142 0
-132 -143 0
-132 -144 0
-132 -145 0
-132 -146 0
-132 -147 0
-132 -148 0
-132 -149 0
-132 -150 0
-132 -151 0
-132 -152 0
-132 -153 0
-132 -154 0
-132 -155 0
-132 -156 0
-132 -157 0
-132 -158 0
-132 -159 0
-132 -160 0
-133 -134 0
-133 -135 0
-133 -136 0
-133 -137 0
-133 -138 0
-133 -139 0
-133 -140 0
-133 -141 0
-133 -142 0
-133 -143 0
-133 -144 0
-133 -145 0
-133 -146 0
-133 -147 0
-133 -148 0
-133 -149 0
-133 -150 0
-133 -151 0
-133 -152 0
-133 -153 0
-133 -154 0
-133 -155 0
-133 -156 0
-133 -157 0
-133 -158 0
-133 -159 0
-133 -160 0
-134 -135 0
-134 -136 0
-134 -137 0
-134 -138 0
-134 -139 0
-134 -140 0
-134 -141 0
-134 -142 0
-134 -143 0
-134 -144 0
-134 -145 0
-134 -146 0
-134 -147 0
-134 -148 0
-134 -149 0
-134 -150 0
-134 -151 0
-134 -152 0
-134 -153 0
-134 -154 0
-134 -155 0
-134 -156 0
-134 -157 0
-134 -158 0
-134 -159 0
-134 -160 0
-135 -136 0
-135 -137 0
-135 -138 0
-135 -139 0
-135 -140 0
-135 -141 0
-135 -142 0
-135 -143 0
-135 -144 0
-135 -145 0
-135 -146 0
-135 -147 0
-135 -148 0
-135 -149 0
-135 -150 0
-135 -151 0
-135 -152 0
-135 -153 0
-135 -154 0
-135 -155 0
-135 -156 0
-135 -157 0
-135 -158 0
-135 -159 0
-135 -160 0
-136 -137 0
-136 -138 0
-136 -139 0
-136 -140 0
-136 -141 0
-136 -142 0
-136 -143 0
-136 -144 0
-136 -145 0
-136 -146 0
-136 -147 0
-136 -148 0
-136 -149 0
-136 -150 0
-136 -151 0
-136 -152 0
-136 -153 0
-136 -154 0
-136 -155 0
-136 -156 0
-136 -157 0
-136 -158 0
-136 -159 0
-136 -160 0
-137 -138 0
-137 -139 0
-137 -140 0
-137 -141 0
-137 -142 0
-137 -143 0
-137 -144 0
-137 -145 0
-137 -146 0
-137 -147 0
-137 -148 0
-137 -149 0
-137 -150 0
-137 -151 0
-137 -152 0
-137 -153 0
-137 -154 0
-137 -155 0
-137 -156 0
-137 -157 0
-137 -158 0
-137 -159 0
-137 -160 0
-138 -139 0
-138 -140 0
-138 -141 0
-138 -142 0
-138 -143 0
-138 -144 0
-138 -145 0
-138 -146 0
-138 -147 0
-138 -148 0
-138 -149 0
-138 -150 0
-138 -151 0
-138 -152 0
-138 -153 0
-138 -154 0
-138 -155 0
-138 -156 0
-138 -157 0
-138 -158 0
-138 -159 0
-138 -160 0
-139 -140 0
-139 -141 0
-139 -142 0
-139 -143 0
-139 -144 0
-139 -145 0
-139 -146 0
-139 -147 0
-139 -148 0
-139 -149 0
-139 -150 0
-139 -151 0
-139 -152 0
-139 -153 0
-139 -154 0
-139 -155 0
-139 -156 0
-139 -157 0
-139 -158 0
-139 -159 0
-139 -160 0
-140 -141 0
-140 -142 0
-140 -143 0
-140 -144 0
-140 -145 0
-140 -146 0
-140 -147 0
-140 -148 0
-140 -149 0
-140 -150 0
-140 -151 0
-140 -152 0
-140 -153 0
-140 -154 0
-140 -155 0
-140 -156 0
-140 -157 0
-140 -158 0
-140 -159 0
-140 -160 0
-141 -142 0
-141 -143 0
-141 -144 0
-141 -145 0
-141 -146 0
-141 -147 0
-141 -148 0
-141 -149 0
-141 -150 0
-141 -151 0
-141 -152 0
-141 -153 0
-141 -154 0
-141 -155 0
-141 -156 0
-141 -157 0
-141 -158 0
-141 -159 0
-141 -160 0
-142 -143 0
-142 -144 0
-142 -145 0
-142 -146 0
-142 -147 0
-142 -148 0
-142 -149 0
-142 -150 0
-142 -151 0
-142 -152 0
-142 -153 0
-142 -154 0
-142 -155 0
-142 -156 0
-142 -157 0
-142 -158 0
-142 -159 0
-142 -160 0
-143 -144 0
-143 -145 0
-143 -146 0
-143 -147 0
-143 -148 0
-143 -149 0
-143 -150 0
-143 -151 0
-143 -152 0
-143 -153 0
-143 -154 0
-143 -155 0
-143 -156 0
-143 -157 0
-143 -158 0
-143 -159 0
-143 -160 0
-144 -145 0
-144 -146 0
-144 -147 0
-144 -148 0
-144 -149 0
-144 -150 0
-144 -151 0
-144 -152 0
-144 -153 0
-144 -154 0
-144 -155 0
-144 -156 0
-144 -157 0
-144 -158 0
-144 -159 0
-144 -160 0
-145 -146 0
-145 -147 0
-145 -148 0
-145 -149 0
-145 -150 0
-145 -151 0
-145 -152 0
-145 -153 0
-145 -154 0
-145 -155 0
-145 -156 0
-145 -157 0
-145 -158 0
-145 -159 0
-145 -160 0
-146 -147 0
-146 -148 0
-146 -149 0
-146 -150 0
-146 -151 0
-146 -152 0
-146 -153 0
-146 -154 0
-146 -155 0
-146 -156 0
-146 -157 0
-146 -158 0
-146 -159 0
-146 -160 0
-147 -148 0
-147 -149 0
-147 -150 0
-147 -151 0
-147 -152 0
-147 -153 0
-147 -154 0
-147 -155 0
-147 -156 0
-147 -157 0
-147 -158 0
-147 -159 0
-147 -160 0
-148 -149 0
-148 -150 0
-148 -151 0
-148 -152 0
-148 -153 0
-148 -154 0
-148 -155 0
-148 -156 0
-148 -157 0
-148 -158 0
-148 -159 0
-148 -160 0
-149 -150 0
-149 -151 0
-149 -152 0
-149 -153 0
-149 -154 0
-149 -155 0
-149 -156 0
-149 -157 0
-149 -158 0
-149 -159 0
-149 -160 0
-150 -151 0
-150 -152 0
-150 -153 0
-150 -154 0
-150 -155 0
-150 -156 0
-150 -157 0
-150 -158 0
-150 -159 0
-150 -160 0
-151 -152 0
-151 -153 0
-151 -154 0
-151 -155 0
-151 -156 0
-151 -157 0
-151 -158 0
-151 -159 0
-151 -160 0
-152 -153 0
-152 -154 0
-152 -155 0
-152 -156 0
-152 -157 0
-152 -158 0
-152 -159 0
-152 -160 0
-153 -154 0
-153 -155 0
-153 -156 0
-153 -157 0
-153 -158 0
-153 -159 0
-153 -160 0
-154 -155 0
-154 -156 0
-154 -157 0
-154 -158 0
-154 -159 0
-154 -160 0
-155 -156 0
-155 -157 0
-155 -158 0
-155 -159 0
-155 -160 0
-156 -157 0
-156 -158 0
-156 -159 0
-156 -160 0
-157 -158 0
-157 -159 0
-157 -160 0
-158 -159 0
-158 -160 0
-159 -160 0
-121 -17 0
-121 -18 0
-121 -19 0
-121 20 0
-121 -21 0
-121 -22 0
-121 -23 0
-121 24 0
-121 -25 0
-121 -26 0
-121 -27 0
-121 28 0
-121 -29 0
-121 -30 0
-121 -31 0
-121 32 0
-122 -17 0
-122 18 0
-122 -19 0
-122 -20 0
-122 -21 0
-122 22 0
-122 -23 0
-122 -24 0
-122 -25 0
-122 26 0
-122 -27 0
-122 -28 0
-122 -29 0
-122 30 0
-122 -31 0
-122 -32 0
-123 -17 0
-123 -18 0
-123 19 0
-123 -20 0
-123 -21 0
-123 -22 0
-123 23 0
-123 -24 0
-123 -25 0
-123 -26 0
-123 27 0
-123 -28 0
-123 -29 0
-123 -30 0
-123 31 0
-123 -32 0
-124 17 0
-124 -18 0
-124 -19 0
-124 -20 0
-124 21 0
-124 -22 0
-124 -23 0
-124 -24 0
-124 25 0
-124 -26 0
-124 -27 0
-124 -28 0
-124 29 0
-124 -30 0
-124 -31 0
-124 -32 0
-125 -17 0
-125 -18 0
-125 -19 0
-125 -20 0
-125 -21 0
-125 22 0
-125 -23 0
-125 24 0
-125 -25 0
-125 -26 0
-125 -27 0
-125 -28 0
-125 -29 0
-125 30 0
-125 -31 0
-125 32 0
-126 -17 0
-126 18 0
-126 -19 0
-126 20 0
-126 -21 0
-126 -22 0
-126 -23 0
-126 -24 0
-126 -25 0
-126 26 0
-126 -27 0
-126 28 0
-126 -29 0
-126 -30 0
-126 -31 0
-126 -32 0
-127 -17 0
-127 -18 0
-127 -19 0
-127 -20 0
-127 21 0
-127 -22 0
-127 23 0
-127 -24 0
-127 -25 0
-127 -26 0
-127 -27 0
-127 -28 0
-127 29 0
-127 -30 0
-127 31 0
-127 -32 0
-128 17 0
-128 -18 0
-128 19 0
-128 -20 0
-128 -21 0
-128 -22 0
-128 -23 0
-128 -24 0
-128 25 0
-128 -26 0
-128 27 0
-128 -28 0
-128 -29 0
-128 -30 0
-128 -31 0
-128 -32 0
-129 -17 0
-129 -18 0
-129 -19 0
-129 -20 0
-129 -21 0
-129 -22 0
-129 -23 0
-129 -24 0
-129 -25 0
-129 26 0
-129 -27 0
-129 28 0
-129 -29 0
-129 30 0
-129 -31 0
-129 32 0
-130 -17 0
-130 18 0
-130 -19 0
-130 20 0
-130 -21 0
-130 22 0
-130 -23 0
-130 24 0
-130 -25 0
-130 -26 0
-130 -27 0
-130 -28 0
-130 -29 0
-130 -30 0
-130 -31 0
-130 -32 0
-131 -17 0
-131 -18 0
-131 -19 0
-131 -20 0
-131 -21 0
-131 -22 0
-131 -23 0
-131 -24 0
-131 25 0
-131 -26 0
-131 27 0
-131 -28 0
-131 29 0
-131 -30 0
-131 31 0
-131 -32 0
-132 17 0
-132 -18 0
-132 19 0
-132 -20 0
-132 21 0
-132 -22 0
-132 23 0
-132 -24 0
-132 -25 0
-132 -26 0
-132 -27 0
-132 -28 0
-132 -29 0
-132 -30 0
-132 -31 0
-132 -32 0
-133 -17 0
-133 -18 2 0
-133 18 -2 0
-133 -19 0
-133 -20 4 0
-133 20 -4 0
-133 -21 0
-133 -22 6 0
-133 22 -6 0
-133 -23 0
-133 -24 8 0
-133 24 -8 0
-133 -25 0
-133 -26 10 0
-133 26 -10 0
-133 -27 0
-133 -28 12 0
-133 28 -12 0
-133 -29 0
-133 -30 14 0
-133 30 -14 0
-133 -31 0
-133 -32 16 0
-133 32 -16 0
-134 -17 0
-134 -18 -2 0
-134 18 2 0
-134 -19 0
-134 -20 -4 0
-134 20 4 0
-134 -21 0
-134 -22 -6 0
-134 22 6 0
-134 -23 0
-134 -24 -8 0
-134 24 8 0
-134 -25 0
-134 -26 -10 0
-134 26 10 0
-134 -27 0
-134 -28 -12 0
-134 28 12 0
-134 -29 0
-134 -30 -14 0
-134 30 14 0
-134 -31 0
-134 -32 -16 0
-134 32 16 0
-135 -17 1 0
-135 17 -1 0
-135 -18 0
-135 -19 3 0
-135 19 -3 0
-135 -20 0
-135 -21 5 0
-135 21 -5 0
-135 -22 0
-135 -23 7 0
-135 23 -7 0
-135 -24 0
-135 -25 9 0
-135 25 -9 0
-135 -26 0
-135 -27 11 0
-135 27 -11 0
-135 -28 0
-135 -29 13 0
-135 29 -13 0
-135 -30 0
-135 -31 15 0
-135 31 -15 0
-135 -32 0
-136 -17 -1 0
-136 17 1 0
-136 -18 0
-136 -19 -3 0
-136 19 3 0
-136 -20 0
-136 -21 -5 0
-136 21 5 0
-136 -22 0
-136 -23 -7 0
-136 23 7 0
-136 -24 0
-136 -25 -9 0
-136 25 9 0
-136 -26 0
-136 -27 -11 0
-136 27 11 0
-136 -28 0
-136 -29 -13 0
-136 29 13 0
-136 -30 0
-136 -31 -15 0
-136 31 15 0
-136 -32 0
-137 -17 0
-137 -18 0
-137 -19 0
-137 -20 0
-137 -21 0
-137 -22 0
-137 23 0
-137 24 0
-137 -25 0
-137 -26 0
-137 -27 0
-137 -28 0
-137 -29 0
-137 -30 0
-137 31 0
-137 32 0
-138 -17 0
-138 -18 0
-138 19 0
-138 20 0
-138 -21 0
-138 -22 0
-138 -23 0
-138 -24 0
-138 -25 0
-138 -26 0
-138 27 0
-138 28 0
-138 -29 0
-138 -30 0
-138 -31 0
-138 -32 0
-139 -17 0
-139 -18 0
-139 -19 0
-139 -20 0
-139 21 0
-139 22 0
-139 -23 0
-139 -24 0
-139 -25 0
-139 -26 0
-139 -27 0
-139 -28 0
-139 29 0
-139 30 0
-139 -31 0
-139 -32 0
-140 17 0
-140 18 0
-140 -19 0
-140 -20 0
-140 -21 0
-140 -22 0
-140 -23 0
-140 -24 0
-140 25 0
-140 26 0
-140 -27 0
-140 -28 0
-140 -29 0
-140 -30 0
-140 -31 0
-140 -32 0
-141 -17 0
-141 -18 0
-141 -19 0
-141 -20 0
-141 -21 0
-141 -22 0
-141 -23 0
-141 -24 0
-141 -25 0
-141 -26 0
-141 27 0
-141 28 0
-141 -29 0
-141 -30 0
-141 31 0
-141 32 0
-142 -17 0
-142 -18 0
-142 19 0
-142 20 0
-142 -21 0
-142 -22 0
-142 23 0
-142 24 0
-142 -25 0
-142 -26 0
-142 -27 0
-142 -28 0
-142 -29 0
-142 -30 0
-142 -31 0
-142 -32 0
-143 -17 0
-143 -18 0
-143 -19 0
-143 -20 0
-143 -21 0
-143 -22 0
-143 -23 0
-143 -24 0
-143 25 0
-143 26 0
-143 -27 0
-143 -28 0
-143 29 0
-143 30 0
-143 -31 0
-143 -32 0
-144 17 0
-144 18 0
-144 -19 0
-144 -20 0
-144 21 0
-144 22 0
-144 -23 0
-144 -24 0
-144 -25 0
-144 -26 0
-144 -27 0
-144 -28 0
-144 -29 0
-144 -30 0
-144 -31 0
-144 -32 0
-145 -17 0
-145 -18 0
-145 -19 3 0
-145 19 -3 0
-145 -20 4 0
-145 20 -4 0
-145 -21 0
-145 -22 0
-145 -23 7 0
-145 23 -7 0
-145 -24 8 0
-145 24 -8 0
-145 -25 0
-145 -26 0
-145 -27 11 0
-145 27 -11 0
-145 -28 12 0
-145 28 -12 0
-145 -29 0
-145 -30 0
-145 -31 15 0
-145 31 -15 0
-145 -32 16 0
-145 32 -16 0
-146 -17 0
-146 -18 0
-146 -19 -3 0
-146 19 3 0
-146 -20 -4 0
-146 20 4 0
-146 -21 0
-146 -22 0
-146 -23 -7 0
-146 23 7 0
-146 -24 -8 0
-146 24 8 0
-146 -25 0
-146 -26 0
-146 -27 -11 0
-146 27 11 0
-146 -28 -12 0
-146 28 12 0
-146 -29 0
-146 -30 0
-146 -31 -15 0
-146 31 15 0
-146 -32 -16 0
-146 32 16 0
-147 -17 1 0
-147 17 -1 0
-147 -18 2 0
-147 18 -2 0
-147 -19 0
-147 -20 0
-147 -21 5 0
-147 21 -5 0
-147 -22 6 0
-147 22 -6 0
-147 -23 0
-147 -24 0
-147 -25 9 0
-147 25 -9 0
-147 -26 10 0
-147 26 -10 0
-147 -27 0
-147 -28 0
-147 -29 13 0
-147 29 -13 0
-147 -30 14 0
-147 30 -14 0
-147 -31 0
-147 -32 0
-148 -17 -1 0
-148 17 1 0
-148 -18 -2 0
-148 18 2 0
-148 -19 0
-148 -20 0
-148 -21 -5 0
-148 21 5 0
-148 -22 -6 0
-148 22 6 0
-148 -23 0
-148 -24 0
-148 -25 -9 0
-148 25 9 0
-148 -26 -10 0
-148 26 10 0
-148 -27 0
-148 -28 0
-148 -29 -13 0
-148 29 13 0
-148 -30 -14 0
-148 30 14 0
-148 -31 0
-148 -32 0
-149 -17 0
-149 -18 0
-149 -19 0
-149 -20 0
-149 -21 0
-149 -22 0
-149 -23 0
-149 -24 0
-149 -25 0
-149 -26 0
-149 -27 0
-149 -28 0
-149 29 0
-149 30 0
-149 31 0
-149 32 0
-150 -17 0
-150 -18 0
-150 -19 0
-150 -20 0
-150 21 0
-150 22 0
-150 23 0
-150 24 0
-150 -25 0
-150 -26 0
-150 -27 0
-150 -28 0
-150 -29 0
-150 -30 0
-150 -31 0
-150 -32 0
-151 -17 0
-151 -18 0
-151 -19 0
-151 -20 0
-151 -21 0
-151 -22 0
-151 -23 0
-151 -24 0
-151 25 0
-151 26 0
-151 27 0
-151 28 0
-151 -29 0
-151 -30 0
-151 -31 0
-151 -32 0
-152 17 0
-152 18 0
-152 19 0
-152 20 0
-152 -21 0
-152 -22 0
-152 -23 0
-152 -24 0
-152 -25 0
-152 -26 0
-152 -27 0
-152 -28 0
-152 -29 0
-152 -30 0
-152 -31 0
-152 -32 0
-153 -17 0
-153 -18 0
-153 -19 0
-153 -20 0
-153 -21 5 0
-153 21 -5 0
-153 -22 6 0
-153 22 -6 0
-153 -23 7 0
-153 23 -7 0
-153 -24 8 0
-153 24 -8 0
-153 -25 0
-153 -26 0
-153 -27 0
-153 -28 0
-153 -29 13 0
-153 29 -13 0
-153 -30 14 0
-153 30 -14 0
-153 -31 15 0
-153 31 -15 0
-153 -32 16 0
-153 32 -16 0
-154 -17 0
-154 -18 0
-154 -19 0
-154 -20 0
-154 -21 -5 0
-154 21 5 0
-154 -22 -6 0
-154 22 6 0
-154 -23 -7 0
-154 23 7 0
-154 -24 -8 0
-154 24 8 0
-154 -25 0
-154 -26 0
-154 -27 0
-154 -28 0
-154 -29 -13 0
-154 29 13 0
-154 -30 -14 0
-154 30 14 0
-154 -31 -15 0
-154 31 15 0
-154 -32 -16 0
-154 32 16 0
-155 -17 1 0
-155 17 -1 0
-155 -18 2 0
-155 18 -2 0
-155 -19 3 0
-155 19 -3 0
-155 -20 4 0
-155 20 -4 0
-155 -21 0
-155 -22 0
-155 -23 0
-155 -24 0
-155 -25 9 0
-155 25 -9 0
-155 -26 10 0
-155 26 -10 0
-155 -27 11 0
-155 27 -11 0
-155 -28 12 0
-155 28 -12 0
-155 -29 0
-155 -30 0
-155 -31 0
-155 -32 0
-156 -17 -1 0
-156 17 1 0
-156 -18 -2 0
-156 18 2 0
-156 -19 -3 0
-156 19 3 0
-156 -20 -4 0
-156 20 4 0
-156 -21 0
-156 -22 0
-156 -23 0
-156 -24 0
-156 -25 -9 0
-156 25 9 0
-156 -26 -10 0
-156 26 10 0
-156 -27 -11 0
-156 27 11 0
-156 -28 -12 0
-156 28 12 0
-156 -29 0
-156 -30 0
-156 -31 0
-156 -32 0
-157 -17 0
-157 -18 0
-157 -19 0
-157 -20 0
-157 -21 0
-157 -22 0
-157 -23 0
-157 -24 0
-157 -25 9 0
-157 25 -9 0
-157 -26 10 0
-157 26 -10 0
-157 -27 11 0
-157 27 -11 0
-157 -28 12 0
-157 28 -12 0
-157 -29 13 0
-157 29 -13 0
-157 -30 14 0
-157 30 -14 0
-157 -31 15 0
-157 31 -15 0
-157 -32 16 0
-157 32 -16 0
-158 -17 0
-158 -18 0
-158 -19 0
-158 -20 0
-158 -21 0
-158 -22 0
-158 -23 0
-158 -24 0
-158 -25 -9 0
-158 25 9 0
-158 -26 -10 0
-158 26 10 0
-158 -27 -11 0
-158 27 11 0
-158 -28 -12 0
-158 28 12 0
-158 -29 -13 0
-158 29 13 0
-158 -30 -14 0
-158 30 14 0
-158 -31 -15 0
-158 31 15 0
-158 -32 -16 0
-158 32 16 0
-159 -17 1 0
-159 17 -1 0
-159 -18 2 0
-159 18 -2 0
-159 -19 3 0
-159 19 -3 0
-159 -20 4 0
-159 20 -4 0
-159 -21 5 0
-159 21 -5 0
-159 -22 6 0
-159 22 -6 0
-159 -23 7 0
-159 23 -7 0
-159 -24 8 0
-159 24 -8 0
-159 -25 0
-159 -26 0
-159 -27 0
-159 -28 0
-159 -29 0
-159 -30 0
-159 -31 0
-159 -32 0
-160 -17 -1 0
-160 17 1 0
-160 -18 -2 0
-160 18 2 0
-160 -19 -3 0
-160 19 3 0
-160 -20 -4 0
-160 20 4 0
-160 -21 -5 0
-160 21 5 0
-160 -22 -6 0
-160 22 6 0
-160 -23 -7 0
-160 23 7 0
-160 -24 -8 0
-160 24 8 0
-160 -25 0
-160 -26 0
-160 -27 0
-160 -28 0
-160 -29 0
-160 -30 0
-160 -31 0
-160 -32 0
161 162 163 164 165 166 167 168 169 170 171 172 173 174 175 176 177 178 179 180 181 182 183 184 185 186 187 188 189 190 191 192 193 194 195 196 197 198 199 200 201 202 203 204 205 206 207 208 209 210 211 212 213 214 215 216 217 218 219 220 0
-161 -162 0
-161 -163 0
-161 -164 0
-161 -165 0
-161 -166 0
-161 -167 0
-161 -168 0
-161 -169 0
-161 -170 0
-161 -171 0
-161 -172 0
-161 -173 0
-161 -174 0
-161 -175 0
-161 -176 0
-161 -177 0
-161 -178 0
-161 -179 0
-161 -180 0
-161 -181 0
-161 -182 0
-161 -183 0
-161 -184 0
-161 -185 0
-161 -186 0
-161 -187 0
-161 -188 0
-161 -189 0
-161 -190 0
-161 -191 0
-161 -192 0
-161 -193 0
-161 -194 0
-161 -195 0
-161 -196 0
-161 -197 0
-161 -198 0
-161 -199 0
-161 -200 0
-161 -201 0
-161 -202 0
-161 -203 0
-161 -204 0
-161 -205 0
-161 -206 0
-161 -207 0
-161 -208 0
-161 -209 0
-161 -210 0
-161 -211 0
-161 -212 0
-161 -213 0
-161 -214 0
-161 -215 0
-161 -216 0
-161 -217 0
-161 -218 0
-161 -219 0
-161 -220 0
-162 -163 0
-162 -164 0
-162 -165 0
-162 -166 0
-162 -167 0
-162 -168 0
-162 -169 0
-162 -170 0
-162 -171 0
-162 -172 0
-162 -173 0
-162 -174 0
-162 -175 0
-162 -176 0
-162 -177 0
-162 -178 0
-162 -179 0
-162 -180 0
-162 -181 0
-162 -182 0
-162 -183 0
-162 -184 0
-162 -185 0
-162 -186 0
-162 -187 0
-162 -188 0
-162 -189 0
-162 -190 0
-162 -191 0
-162 -192 0
-162 -193 0
-162 -194 0
-162 -195 0
-162 -196 0
-162 -197 0
-162 -198 0
-162 -199 0
-162 -200 0
-162 -201 0
-162 -202 0
-162 -203 0
-162 -204 0
-162 -205 0
-162 -206 0
-162 -207 0
-162 -208 0
-162 -209 0
-162 -210 0
-162 -211 0
-162 -212 0
-162 -213 0
-162 -214 0
-162 -215 0
-162 -216 0
-162 -217 0
-162 -218 0
-162 -219 0
-162 -220 0
-163 -164 0
-163 -165 0
-163 -166 0
-163 -167 0
-163 -168 0
-163 -169 0
-163 -170 0
-163 -171 0
-163 -172 0
-163 -173 0
-163 -174 0
-163 -175 0
-163 -176 0
-163 -177 0
-163 -178 0
-163 -179 0
-163 -180 0
-163 -181 0
-163 -182 0
-163 -183 0
-163 -184 0
-163 -185 0
-163 -186 0
-163 -187 0
-163 -188 0
-163 -189 0
-163 -190 0
-163 -191 0
-163 -192 0
-163 -193 0
-163 -194 0
-163 -195 0
-163 -196 0
-163 -197 0
-163 -198 0
-163 -199 0
-163 -200 0
-163 -201 0
-163 -202 0
-163 -203 0
-163 -204 0
-163 -205 0
-163 -206 0
-163 -207 0
-163 -208 0
-163 -209 0
-163 -210 0
-163 -211 0
-163 -212 0
-163 -213 0
-163 -214 0
-163 -215 0
-163 -216 0
-163 -217 0
-163 -218 0
-163 -219 0
-163 -220 0
-164 -165 0
-164 -166 0
-164 -167 0
-164 -168 0
-164 -169 0
-164 -170 0
-164 -171 0
-164 -172 0
-164 -173 0
-164 -174 0
-164 -175 0
-164 -176 0
-164 -177 0
-164 -178 0
-164 -179 0
-164 -180 0
-164 -181 0
-164 -182 0
-164 -183 0
-164 -184 0
-164 -185 0
-164 -186 0
-164 -187 0
-164 -188 0
-164 -189 0
-164 -190 0
-164 -191 0
-164 -192 0
-164 -193 0
-164 -194 0
-164 -195 0
-164 -196 0
-164 -197 0
-164 -198 0
-164 -199 0
-164 -200 0
-164 -201 0
-164 -202 0
-164 -203 0
-164 -204 0
-164 -205 0
-164 -206 0
-164 -207 0
-164 -208 0
-164 -209 0
-164 -210 0
-164 -211 0
-164 -212 0
-164 -213 0
-164 -214 0
-164 -215 0
-164 -216 0
-164 -217 0
-164 -218 0
-164 -219 0
-164 -220 0
-165 -166 0
-165 -167 0
-165 -168 0
-165 -169 0
-165 -170 0
-165 -171 0
-165 -172 0
-165 -173 0
-165 -174 0
-165 -175 0
-165 -176 0
-165 -177 0
-165 -178 0
-165 -179 0
-165 -180 0
-165 -181 0
-165 -182 0
-165 -183 0
-165 -184 0
-165 -185 0
-165 -186 0
-165 -187 0
-165 -188 0
-165 -189 0
-165 -190 0
-165 -191 0
-165 -192 0
-165 -193 0
-165 -194 0
-165 -195 0
-165 -196 0
-165 -197 0
-165 -198 0
-165 -199 0
-165 -200 0
-165 -201 0
-165 -202 0
-165 -203 0
-165 -204 0
-165 -205 0
-165 -206 0
-165 -207 0
-165 -208 0
-165 -209 0
-165 -210 0
-165 -211 0
-165 -212 0
-165 -213 0
-165 -214 0
-165 -215 0
-165 -216 0
-165 -217 0
-165 -218 0
-165 -219 0
-165 -220 0
-166 -167 0
-166 -168 0
-166 -169 0
-166 -170 0
-166 -171 0
-166 -172 0
-166 -173 0
-166 -174 0
-166 -175 0
-166 -176 0
-166 -177 0
-166 -178 0
-166 -179 0
-166 -180 0
-166 -181 0
-166 -182 0
-166 -183 0
-166 -184 0
-166 -185 0
-166 -186 0
-166 -187 0
-166 -188 0
-166 -189 0
-166 -190 0
-166 -191 0
-166 -192 0
-166 -193 0
-166 -194 0
-166 -195 0
-166 -196 0
-166 -197 0
-166 -198 0
-166 -199 0
-166 -200 0
-166 -201 0
-166 -202 0
-166 -203 0
-166 -204 0
-166 -205 0
-166 -206 0
-166 -207 0
-166 -208 0
-166 -209 0
-166 -210 0
-166 -211 0
-166 -212 0
-166 -213 0
-166 -214 0
-166 -215 0
-166 -216 0
-166 -217 0
-166 -218 0
-166 -219 0
-166 -220 0
-167 -168 0
-167 -169 0
-167 -170 0
-167 -171 0
-167 -172 0
-167 -173 0
-167 -174 0
-167 -175 0
-167 -176 0
-167 -177 0
-167 -178 0
-167 -179 0
-167 -180 0
-167 -181 0
-167 -182 0
-167 -183 0
-167 -184 0
-167 -185 0
-167 -186 0
-167 -187 0
-167 -188 0
-167 -189 0
-167 -190 0
-167 -191 0
-167 -192 0
-167 -193 0
-167 -194 0
-167 -195 0
-167 -196 0
-167 -197 0
-167 -198 0
-167 -199 0
-167 -200 0
-167 -201 0
-167 -202 0
-167 -203 0
-167 -204 0
-167 -205 0
-167 -206 0
-167 -207 0
-167 -208 0
-167 -209 0
-167 -210 0
-167 -211 0
-167 -212 0
-167 -213 0
-167 -214 0
-167 -215 0
-167 -216 0
-167 -217 0
-167 -218 0
-167 -219 0
-167 -220 0
-168 -169 0
-168 -170 0
-168 -171 0
-168 -172 0
-168 -173 0
-168 -174 0
-168 -175 0
-168 -176 0
-168 -177 0
-168 -178 0
-168 -179 0
-168 -180 0
-168 -181 0
-168 -182 0
-168 -183 0
-168 -184 0
-168 -185 0
-168 -186 0
-168 -187 0
-168 -188 0
-168 -189 0
-168 -190 0
-168 -191 0
-168 -192 0
-168 -193 0
-168 -194 0
-168 -195 0
-168 -196 0
-168 -197 0
-168 -198 0
-168 -199 0
-168 -200 0
-168 -201 0
-168 -202 0
-168 -203 0
-168 -204 0
-168 -205 0
-168 -206 0
-168 -207 0
-168 -208 0
-168 -209 0
-168 -210 0
-168 -211 0
-168 -212 0
-168 -213 0
-168 -214 0
-168 -215 0
-168 -216 0
-168 -217 0
-168 -218 0
-168 -219 0
-168 -220 0
-169 -170 0
-169 -171 0
-169 -172 0
-169 -173 0
-169 -174 0
-169 -175 0
-169 -176 0
-169 -177 0
-169 -178 0
-169 -179 0
-169 -180 0
-169 -181 0
-169 -182 0
-169 -183 0
-169 -184 0
-169 -185 0
-169 -186 0
-169 -187 0
-169 -188 0
-169 -189 0
-169 -190 0
-169 -191 0
-169 -192 0
-169 -193 0
-169 -194 0
-169 -195 0
-169 -196 0
-169 -197 0
-169 -198 0
-169 -199 0
-169 -200 0
-169 -201 0
-169 -202 0
-169 -203 0
-169 -204 0
-169 -205 0
-169 -206 0
-169 -207 0
-169 -208 0
-169 -209 0
-169 -210 0
-169 -211 0
-169 -212 0
-169 -213 0
-169 -214 0
-169 -215 0
-169 -216 0
-169 -217 0
-169 -218 0
-169 -219 0
-169 -220 0
-170 -171 0
-170 -172 0
-170 -173 0
-170 -174 0
-170 -175 0
-170 -176 0
-170 -177 0
-170 -178 0
-170 -179 0
-170 -180 0
-170 -181 0
-170 -182 0
-170 -183 0
-170 -184 0
-170 -185 0
-170 -186 0
-170 -187 0
-170 -188 0
-170 -189 0
-170 -190 0
-170 -191 0
-170 -192 0
-170 -193 0
-170 -194 0
-170 -195 0
-170 -196 0
-170 -197 0
-170 -198 0
-170 -199 0
-170 -200 0
-170 -201 0
-170 -202 0
-170 -203 0
-170 -204 0
-170 -205 0
-170 -206 0
-170 -207 0
-170 -208 0
-170 -209 0
-170 -210 0
-170 -211 0
-170 -212 0
-170 -213 0
-170 -214 0
-170 -215 0
-170 -216 0
-170 -217 0
-170 -218 0
-170 -219 0
-170 -220 0
-171 -172 0
-171 -173 0
-171 -174 0
-171 -175 0
-171 -176 0
-171 -177 0
-171 -178 0
-171 -179 0
-171 -180 0
-171 -181 0
-171 -182 0
-171 -183 0
-171 -184 0
-171 -185 0
-171 -186 0
-171 -187 0
-171 -188 0
-171 -189 0
-171 -190 0
-171 -191 0
-171 -192 0
-171 -193 0
-171 -194 0
-171 -195 0
-171 -196 0
-171 -197 0
-171 -198 0
-171 -199 0
-171 -200 0
-171 -201 0
-171 -202 0
-171 -203 0
-171 -204 0
-171 -205 0
-171 -206 0
-171 -207 0
-171 -208 0
-171 -209 0
-171 -210 0
-171 -211 0
-171 -212 0
-171 -213 0
-171 -214 0
-171 -215 0
-171 -216 0
-171 -217 0
-171 -218 0
-171 -219 0
-171 -220 0
-172 -173 0
-172 -174 0
-172 -175 0
-172 -176 0
-172 -177 0
-172 -178 0
-172 -179 0
-172 -180 0
-172 -181 0
-172 -182 0
-172 -183 0
-172 -184 0
-172 -185 0
-172 -186 0
-172 -187 0
-172 -188 0
-172 -189 0
-172 -190 0
-172 -191 0
-172 -192 0
-172 -193 0
-172 -194 0
-172 -195 0
-172 -196 0
-172 -197 0
-172 -198 0
-172 -199 0
-172 -200 0
-172 -201 0
-172 -202 0
-172 -203 0
-172 -204 0
-172 -205 0
-172 -206 0
-172 -207 0
-172 -208 0
-172 -209 0
-172 -210 0
-172 -211 0
-172 -212 0
-172 -213 0
-172 -214 0
-172 -215 0
-172 -216 0
-172 -217 0
-172 -218 0
-172 -219 0
-172 -220 0
-173 -174 0
-173 -175 0
-173 -176 0
-173 -177 0
-173 -178 0
-173 -179 0
-173 -180 0
-173 -181 0
-173 -182 0
-173 -183 0
-173 -184 0
-173 -185 0
-173 -186 0
-173 -187 0
-173 -188 0
-173 -189 0
-173 -190 0
-173 -191 0
-173 -192 0
-173 -193 0
-173 -194 0
-173 -195 0
-173 -196 0
-173 -197 0
-173 -198 0
-173 -199 0
-173 -200 0
-173 -201 0
-173 -202 0
-173 -203 0
-173 -204 0
-173 -205 0
-173 -206 0
-173 -207 0
-173 -208 0
-173 -209 0
-173 -210 0
-173 -211 0
-173 -212 0
-173 -213 0
-173 -214 0
-173 -215 0
-173 -216 0
-173 -217 0
-173 -218 0
-173 -219 0
-173 -220 0
-174 -175 0
-174 -176 0
-174 -177 0
-174 -178 0
-174 -179 0
-174 -180 0
-174 -181 0
-174 -182 0
-174 -183 0
-174 -184 0
-174 -185 0
-174 -186 0
-174 -187 0
-174 -188 0
-174 -189 0
-174 -190 0
-174 -191 0
-174 -192 0
-174 -193 0
-174 -194 0
-174 -195 0
-174 -196 0
-174 -197 0
-174 -198 0
-174 -199 0
-174 -200 0
-174 -201 0
-174 -202 0
-174 -203 0
-174 -204 0
-174 -205 0
-174 -206 0
-174 -207 0
-174 -208 0
-174 -209 0
-174 -210 0
-174 -211 0
-174 -212 0
-174 -213 0
-174 -214 0
-174 -215 0
-174 -216 0
-174 -217 0
-174 -218 0
-174 -219 0
-174 -220 0
-175 -176 0
-175 -177 0
-175 -178 0
-175 -179 0
-175 -180 0
-175 -181 0
-175 -182 0
-175 -183 0
-175 -184 0
-175 -185 0
-175 -186 0
-175 -187 0
-175 -188 0
-175 -189 0
-175 -190 0
-175 -191 0
-175 -192 0
-175 -193 0
-175 -194 0
-175 -195 0
-175 -196 0
-175 -197 0
-175 -198 0
-175 -199 0
-175 -200 0
-175 -201 0
-175 -202 0
-175 -203 0
-175 -204 0
-175 -205 0
-175 -206 0
-175 -207 0
-175 -208 0
-175 -209 0
-175 -210 0
-175 -211 0
-175 -212 0
-175 -213 0
-175 -214 0
-175 -215 0
-175 -216 0
-175 -217 0
-175 -218 0
-175 -219 0
-175 -220 0
-176 -177 0
-176 -178 0
-176 -179 0
-176 -180 0
-176 -181 0
-176 -182 0
-176 -183 0
-176 -184 0
-176 -185 0
-176 -186 0
-176 -187 0
-176 -188 0
-176 -189 0
-176 -190 0
-176 -191 0
-176 -192 0
-176 -193 0
-176 -194 0
-176 -195 0
-176 -196 0
-176 -197 0
-176 -198 0
-176 -199 0
-176 -200 0
-176 -201 0
-176 -202 0
-176 -203 0
-176 -204 0
-176 -205 0
-176 -206 0
-176 -207 0
-176 -208 0
-176 -209 0
-176 -210 0
-176 -211 0
-176 -212 0
-176 -213 0
-176 -214 0
-176 -215 0
-176 -216 0
-176 -217 0
-176 -218 0
-176 -219 0
-176 -220 0
-177 -178 0
-177 -179 0
-177 -180 0
-177 -181 0
-177 -182 0
-177 -183 0
-177 -184 0
-177 -185 0
-177 -186 0
-177 -187 0
-177 -188 0
-177 -189 0
-177 -190 0
-177 -191 0
-177 -192 0
-177 -193 0
-177 -194 0
-177 -195 0
-177 -196 0
-177 -197 0
-177 -198 0
-177 -199 0
-177 -200 0
-177 -201 0
-177 -202 0
-177 -203 0
-177 -204 0
-177 -205 0
-177 -206 0
-177 -207 0
-177 -208 0
-177 -209 0
-177 -210 0
-177 -211 0
-177 -212 0
-177 -213 0
-177 -214 0
-177 -215 0
-177 -216 0
-177 -217 0
-177 -218 0
-177 -219 0
-177 -220 0
-178 -179 0
-178 -180 0
-178 -181 0
-178 -182 0
-178 -183 0
-178 -184 0
-178 -185 0
-178 -186 0
-178 -187 0
-178 -188 0
-178 -189 0
-178 -190 0
-178 -191 0
-178 -192 0
-178 -193 0
-178 -194 0
-178 -195 0
-178 -196 0
-178 -197 0
-178 -198 0
-178 -199 0
-178 -200 0
-178 -201 0
-178 -202 0
-178 -203 0
-178 -204 0
-178 -205 0
-178 -206 0
-178 -207 0
-178 -208 0
-178 -209 0
-178 -210 0
-178 -211 0
-178 -212 0
-178 -213 0
-178 -214 0
-178 -215 0
-178 -216 0
-178 -217 0
-178 -218 0
-178 -219 0
-178 -220 0
-179 -180 0
-179 -181 0
-179 -182 0
-179 -183 0
-179 -184 0
-179 -185 0
-179 -186 0
-179 -187 0
-179 -188 0
-179 -189 0
-179 -190 0
-179 -191 0
-179 -192 0
-179 -193 0
-179 -194 0
-179 -195 0
-179 -196 0
-179 -197 0
-179 -198 0
-179 -199 0
-179 -200 0
-179 -201 0
-179 -202 0
-179 -203 0
-179 -204 0
-179 -205 0
-179 -206 0
-179 -207 0
-179 -208 0
-179 -209 0
-179 -210 0
-179 -211 0
-179 -212 0
-179 -213 0
-179 -214 0
-179 -215 0
-179 -216 0
-179 -217 0
-179 -218 0
-179 -219 0
-179 -220 0
-180 -181 0
-180 -182 0
-180 -183 0
-180 -184 0
-180 -185 0
-180 -186 0
-180 -187 0
-180 -188 0
-180 -189 0
-180 -190 0
-180 -191 0
-180 -192 0
-180 -193 0
-180 -194 0
-180 -195 0
-180 -196 0
-180 -197 0
-180 -198 0
-180 -199 0
-180 -200 0
-180 -201 0
-180 -202 0
-180 -203 0
-180 -204 0
-180 -205 0
-180 -206 0
-180 -207 0
-180 -208 0
-180 -209 0
-180 -210 0
-180 -211 0
-180 -212 0
-180 -213 0
-180 -214 0
-180 -215 0
-180 -216 0
-180 -217 0
-180 -218 0
-180 -219 0
-180 -220 0
-181 -182 0
-181 -183 0
-181 -184 0
-181 -185 0
-181 -186 0
-181 -187 0
-181 -188 0
-181 -189 0
-181 -190 0
-181 -191 0
-181 -192 0
-181 -193 0
-181 -194 0
-181 -195 0
-181 -196 0
-181 -197 0
-181 -198 0
-181 -199 0
-181 -200 0
-181 -201 0
-181 -202 0
-181 -203 0
-181 -204 0
-181 -205 0
-181 -206 0
-181 -207 0
-181 -208 0
-181 -209 0
-181 -210 0
-181 -211 0
-181 -212 0
-181 -213 0
-181 -214 0
-181 -215 0
-181 -216 0
-181 -217 0
-181 -218 0
-181 -219 0
-181 -220 0
-182 -183 0
-182 -184 0
-182 -185 0
-182 -186 0
-182 -187 0
-182 -188 0
-182 -189 0
-182 -190 0
-182 -191 0
-182 -192 0
-182 -193 0
-182 -194 0
-182 -195 0
-182 -196 0
-182 -197 0
-182 -198 0
-182 -199 0
-182 -200 0
-182 -201 0
-182 -202 0
-182 -203 0
-182 -204 0
-182 -205 0
-182 -206 0
-182 -207 0
-182 -208 0
-182 -209 0
-182 -210 0
-182 -211 0
-182 -212 0
-182 -213 0
-182 -214 0
-182 -215 0
-182 -216 0
-182 -217 0
-182 -218 0
-182 -219 0
-182 -220 0
-183 -184 0
-183 -185 0
-183 -186 0
-183 -187 0
-183 -188 0
-183 -189 0
-183 -190 0
-183 -191 0
-183 -192 0
-183 -193 0
-183 -194 0
-183 -195 0
-183 -196 0
-183 -197 0
-183 -198 0
-183 -199 0
-183 -200 0
-183 -201 0
-183 -202 0
-183 -203 0
-183 -204 0
-183 -205 0
-183 -206 0
-183 -207 0
-183 -208 0
-183 -209 0
-183 -210 0
-183 -211 0
-183 -212 0
-183 -213 0
-183 -214 0
-183 -215 0
-183 -216 0
-183 -217 0
-183 -218 0
-183 -219 0
-183 -220 0
-184 -185 0
-184 -186 0
-184 -187 0
-184 -188 0
-184 -189 0
-184 -190 0
-184 -191 0
-184 -192 0
-184 -193 0
-184 -194 0
-184 -195 0
-184 -196 0
-184 -197 0
-184 -198 0
-184 -199 0
-184 -200 0
-184 -201 0
-184 -202 0
-184 -203 0
-184 -204 0
-184 -205 0
-184 -206 0
-184 -207 0
-184 -208 0
-184 -209 0
-184 -210 0
-184 -211 0
-184 -212 0
-184 -213 0
-184 -214 0
-184 -215 0
-184 -216 0
-184 -217 0
-184 -218 0
-184 -219 0
-184 -220 0
-185 -186 0
-185 -187 0
-185 -188 0
-185 -189 0
-185 -190 0
-185 -191 0
-185 -192 0
-185 -193 0
-185 -194 0
-185 -195 0
-185 -196 0
-185 -197 0
-185 -198 0
-185 -199 0
-185 -200 0
-185 -201 0
-185 -202 0
-185 -203 0
-185 -204 0
-185 -205 0
-185 -206 0
-185 -207 0
-185 -208 0
-185 -209 0
-185 -210 0
-185 -211 0
-185 -212 0
-185 -213 0
-185 -214 0
-185 -215 0
-185 -216 0
-185 -217 0
-185 -218 0
-185 -219 0
-185 -220 0
-186 -187 0
-186 -188 0
-186 -189 0
-186 -190 0
-186 -191 0
-186 -192 0
-186 -193 0
-186 -194 0
-186 -195 0
-186 -196 0
-186 -197 0
-186 -198 0
-186 -199 0
-186 -200 0
-186 -201 0
-186 -202 0
-186 -203 0
-186 -204 0
-186 -205 0
-186 -206 0
-186 -207 0
-186 -208 0
-186 -209 0
-186 -210 0
-186 -211 0
-186 -212 0
-186 -213 0
-186 -214 0
-186 -215 0
-186 -216 0
-186 -217 0
-186 -218 0
-186 -219 0
-186 -220 0
-187 -188 0
-187 -189 0
-187 -190 0
-187 -191 0
-187 -192 0
-187 -193 0
-187 -194 0
-187 -195 0
-187 -196 0
-187 -197 0
-187 -198 0
-187 -199 0
-187 -200 0
-187 -201 0
-187 -202 0
-187 -203 0
-187 -204 0
-187 -205 0
-187 -206 0
-187 -207 0
-187 -208 0
-187 -209 0
-187 -210 0
-187 -211 0
-187 -212 0
-187 -213 0
-187 -214 0
-187 -215 0
-187 -216 0
-187 -217 0
-187 -218 0
-187 -219 0
-187 -220 0
-188 -189 0
-188 -190 0
-188 -191 0
-188 -192 0
-188 -193 0
-188 -194 0
-188 -195 0
-188 -196 0
-188 -197 0
-188 -198 0
-188 -199 0
-188 -200 0
-188 -201 0
-188 -202 0
-188 -203 0
-188 -204 0
-188 -205 0
-188 -206 0
-188 -207 0
-188 -208 0
-188 -209 0
-188 -210 0
-188 -211 0
-188 -212 0
-188 -213 0
-188 -214 0
-188 -215 0
-188 -216 0
-188 -217 0
-188 -218 0
-188 -219 0
-188 -220 0
-189 -190 0
-189 -191 0
-189 -192 0
-189 -193 0
-189 -194 0
-189 -195 0
-189 -196 0
-189 -197 0
-189 -198 0
-189 -199 0
-189 -200 0
-189 -201 0
-189 -202 0
-189 -203 0
-189 -204 0
-189 -205 0
-189 -206 0
-189 -207 0
-189 -208 0
-189 -209 0
-189 -210 0
-189 -211 0
-189 -212 0
-189 -213 0
-189 -214 0
-189 -215 0
-189 -216 0
-189 -217 0
-189 -218 0
-189 -219 0
-189 -220 0
-190 -191 0
-190 -192 0
-190 -193 0
-190 -194 0
-190 -195 0
-190 -196 0
-190 -197 0
-190 -198 0
-190 -199 0
-190 -200 0
-190 -201 0
-190 -202 0
-190 -203 0
-190 -204 0
-190 -205 0
-190 -206 0
-190 -207 0
-190 -208 0
-190 -209 0
-190 -210 0
-190 -211 0
-190 -212 0
-190 -213 0
-190 -214 0
-190 -215 0
-190 -216 0
-190 -217 0
-190 -218 0
-190 -219 0
-190 -220 0
-191 -192 0
-191 -193 0
-191 -194 0
-191 -195 0
-191 -196 0
-191 -197 0
-191 -198 0
-191 -199 0
-191 -200 0
-191 -201 0
-191 -202 0
-191 -203 0
-191 -204 0
-191 -205 0
-191 -206 0
-191 -207 0
-191 -208 0
-191 -209 0
-191 -210 0
-191 -211 0
-191 -212 0
-191 -213 0
-191 -214 0
-191 -215 0
-191 -216 0
-191 -217 0
-191 -218 0
-191 -219 0
-191 -220 0
-192 -193 0
-192 -194 0
-192 -195 0
-192 -196 0
-192 -197 0
-192 -198 0
-192 -199 0
-192 -200 0
-192 -201 0
-192 -202 0
-192 -203 0
-192 -204 0
-192 -205 0
-192 -206 0
-192 -207 0
-192 -208 0
-192 -209 0
-192 -210 0
-192 -211 0
-192 -212 0
-192 -213 0
-192 -214 0
-192 -215 0
-192 -216 0
-192 -217 0
-192 -218 0
-192 -219 0
-192 -220 0
-193 -194 0
-193 -195 0
-193 -196 0
-193 -197 0
-193 -198 0
-193 -199 0
-193 -200 0
-193 -201 0
-193 -202 0
-193 -203 0
-193 -204 0
-193 -205 0
-193 -206 0
-193 -207 0
-193 -208 0
-193 -209 0
-193 -210 0
-193 -211 0
-193 -212 0
-193 -213 0
-193 -214 0
-193 -215 0
-193 -216 0
-193 -217 0
-193 -218 0
-193 -219 0
-193 -220 0
-194 -195 0
-194 -196 0
-194 -197 0
-194 -198 0
-194 -199 0
-194 -200 0
-194 -201 0
-194 -202 0
-194 -203 0
-194 -204 0
-194 -205 0
-194 -206 0
-194 -207 0
-194 -208 0
-194 -209 0
-194 -210 0
-194 -211 0
-194 -212 0
-194 -213 0
-194 -214 0
-194 -215 0
-194 -216 0
-194 -217 0
-194 -218 0
-194 -219 0
-194 -220 0
-195 -196 0
-195 -197 0
-195 -198 0
-195 -199 0
-195 -200 0
-195 -201 0
-195 -202 0
-195 -203 0
-195 -204 0
-195 -205 0
-195 -206 0
-195 -207 0
-195 -208 0
-195 -209 0
-195 -210 0
-195 -211 0
-195 -212 0
-195 -213 0
-195 -214 0
-195 -215 0
-195 -216 0
-195 -217 0
-195 -218 0
-195 -219 0
-195 -220 0
-196 -197 0
-196 -198 0
-196 -199 0
-196 -200 0
-196 -201 0
-196 -202 0
-196 -203 0
-196 -204 0
-196 -205 0
-196 -206 0
-196 -207 0
-196 -208 0
-196 -209 0
-196 -210 0
-196 -211 0
-196 -212 0
-196 -213 0
-196 -214 0
-196 -215 0
-196 -216 0
-196 -217 0
-196 -218 0
-196 -219 0
-196 -220 0
-197 -198 0
-197 -199 0
-197 -200 0
-197 -201 0
-197 -202 0
-197 -203 0
-197 -204 0
-197 -205 0
-197 -206 0
-197 -207 0
-197 -208 0
-197 -209 0
-197 -210 0
-197 -211 0
-197 -212 0
-197 -213 0
-197 -214 0
-197 -215 0
-197 -216 0
-197 -217 0
-197 -218 0
-197 -219 0
-197 -220 0
-198 -199 0
-198 -200 0
-198 -201 0
-198 -202 0
-198 -203 0
-198 -204 0
-198 -205 0
-198 -206 0
-198 -207 0
-198 -208 0
-198 -209 0
-198 -210 0
-198 -211 0
-198 -212 0
-198 -213 0
-198 -214 0
-198 -215 0
-198 -216 0
-198 -217 0
-198 -218 0
-198 -219 0
-198 -220 0
-199 -200 0
-199 -201 0
-199 -202 0
-199 -203 0
-199 -204 0
-199 -205 0
-199 -206 0
-199 -207 0
-199 -208 0
-199 -209 0
-199 -210 0
-199 -211 0
-199 -212 0
-199 -213 0
-199 -214 0
-199 -215 0
-199 -216 0
-199 -217 0
-199 -218 0
-199 -219 0
-199 -220 0
-200 -201 0
-200 -202 0
-200 -203 0
-200 -204 0
-200 -205 0
-200 -206 0
-200 -207 0
-200 -208 0
-200 -209 0
-200 -210 0
-200 -211 0
-200 -212 0
-200 -213 0
-200 -214 0
-200 -215 0
-200 -216 0
-200 -217 0
-200 -218 0
-200 -219 0
-200 -220 0
-201 -202 0
-201 -203 0
-201 -204 0
-201 -205 0
-201 -206 0
-201 -207 0
-201 -208 0
-201 -209 0
-201 -210 0
-201 -211 0
-201 -212 0
-201 -213 0
-201 -214 0
-201 -215 0
-201 -216 0
-201 -217 0
-201 -218 0
-201 -219 0
-201 -220 0
-202 -203 0
-202 -204 0
-202 -205 0
-202 -206 0
-202 -207 0
-202 -208 0
-202 -209 0
-202 -210 0
-202 -211 0
-202 -212 0
-202 -213 0
-202 -214 0
-202 -215 0
-202 -216 0
-202 -217 0
-202 -218 0
-202 -219 0
-202 -220 0
-203 -204 0
-203 -205 0
-203 -206 0
-203 -207 0
-203 -208 0
-203 -209 0
-203 -210 0
-203 -211 0
-203 -212 0
-203 -213 0
-203 -214 0
-203 -215 0
-203 -216 0
-203 -217 0
-203 -218 0
-203 -219 0
-203 -220 0
-204 -205 0
-204 -206 0
-204 -207 0
-204 -208 0
-204 -209 0
-204 -210 0
-204 -211 0
-204 -212 0
-204 -213 0
-204 -214 0
-204 -215 0
-204 -216 0
-204 -217 0
-204 -218 0
-204 -219 0
-204 -220 0
-205 -206 0
-205 -207 0
-205 -208 0
-205 -209 0
-205 -210 0
-205 -211 0
-205 -212 0
-205 -213 0
-205 -214 0
-205 -215 0
-205 -216 0
-205 -217 0
-205 -218 0
-205 -219 0
-205 -220 0
-206 -207 0
-206 -208 0
-206 -209 0
-206 -210 0
-206 -211 0
-206 -212 0
-206 -213 0
-206 -214 0
-206 -215 0
-206 -216 0
-206 -217 0
-206 -218 0
-206 -219 0
-206 -220 0
-207 -208 0
-207 -209 0
-207 -210 0
-207 -211 0
-207 -212 0
-207 -213 0
-207 -214 0
-207 -215 0
-207 -216 0
-207 -217 0
-207 -218 0
-207 -219 0
-207 -220 0
-208 -209 0
-208 -210 0
-208 -211 0
-208 -212 0
-208 -213 0
-208 -214 0
-208 -215 0
-208 -216 0
-208 -217 0
-208 -218 0
-208 -219 0
-208 -220 0
-209 -210 0
-209 -211 0
-209 -212 0
-209 -213 0
-209 -214 0
-209 -215 0
-209 -216 0
-209 -217 0
-209 -218 0
-209 -219 0
-209 -220 0
-210 -211 0
-210 -212 0
-210 -213 0
-210 -214 0
-210 -215 0
-210 -216 0
-210 -217 0
-210 -218 0
-210 -219 0
-210 -220 0
-211 -212 0
-211 -213 0
-211 -214 0
-211 -215 0
-211 -216 0
-211 -217 0
-211 -218 0
-211 -219 0
-211 -220 0
-212 -213 0
-212 -214 0
-212 -215 0
-212 -216 0
-212 -217 0
-212 -218 0
-212 -219 0
-212 -220 0
-213 -214 0
-213 -215 0
-213 -216 0
-213 -217 0
-213 -218 0
-213 -219 0
-213 -220 0
-214 -215 0
-214 -216 0
-214 -217 0
-214 -218 0
-214 -219 0
-214 -220 0
-215 -216 0
-215 -217 0
-215 -218 0
-215 -219 0
-215 -220 0
-216 -217 0
-216 -218 0
-216 -219 0
-216 -220 0
-217 -218 0
-217 -219 0
-217 -220 0
-218 -219 0
-218 -220 0
-219 -220 0
-161 -33 0
-161 -34 0
-161 -35 0
-161 36 0
-161 -37 0
-161 -38 0
-161 -39 0
-161 40 0
-161 -41 0
-161 -42 0
-161 -43 0
-161 44 0
-161 -45 0
-161 -46 0
-161 -47 0
-161 48 0
-162 -33 0
-162 34 0
-162 -35 0
-162 -36 0
-162 -37 0
-162 38 0
-162 -39 0
-162 -40 0
-162 -41 0
-162 42 0
-162 -43 0
-162 -44 0
-162 -45 0
-162 46 0
-162 -47 0
-162 -48 0
-163 -33 0
-163 -34 0
-163 35 0
-163 -36 0
-163 -37 0
-163 -38 0
-163 39 0
-163 -40 0
-163 -41 0
-163 -42 0
-163 43 0
-163 -44 0
-163 -45 0
-163 -46 0
-163 47 0
-163 -48 0
-164 33 0
-164 -34 0
-164 -35 0
-164 -36 0
-164 37 0
-164 -38 0
-164 -39 0
-164 -40 0
-164 41 0
-164 -42 0
-164 -43 0
-164 -44 0
-164 45 0
-164 -46 0
-164 -47 0
-164 -48 0
-165 -33 0
-165 -34 0
-165 -35 0
-165 -36 0
-165 -37 0
-165 38 0
-165 -39 0
-165 40 0
-165 -41 0
-165 -42 0
-165 -43 0
-165 -44 0
-165 -45 0
-165 46 0
-165 -47 0
-165 48 0
-166 -33 0
-166 34 0
-166 -35 0
-166 36 0
-166 -37 0
-166 -38 0
-166 -39 0
-166 -40 0
-166 -41 0
-166 42 0
-166 -43 0
-166 44 0
-166 -45 0
-166 -46 0
-166 -47 0
-166 -48 0
-167 -33 0
-167 -34 0
-167 -35 0
-167 -36 0
-167 37 0
-167 -38 0
-167 39 0
-167 -40 0
-167 -41 0
-167 -42 0
-167 -43 0
-167 -44 0
-167 45 0
-167 -46 0
-167 47 0
-167 -48 0
-168 33 0
-168 -34 0
-168 35 0
-168 -36 0
-168 -37 0
-168 -38 0
-168 -39 0
-168 -40 0
-168 41 0
-168 -42 0
-168 43 0
-168 -44 0
-168 -45 0
-168 -46 0
-168 -47 0
-168 -48 0
-169 -33 0
-169 -34 0
-169 -35 0
-169 -36 0
-169 -37 0
-169 -38 0
-169 -39 0
-169 -40 0
-169 -41 0
-169 42 0
-169 -43 0
-169 44 0
-169 -45 0
-169 46 0
-169 -47 0
-169 48 0
-170 -33 0
-170 34 0
-170 -35 0
-170 36 0
-170 -37 0
-170 38 0
-170 -39 0
-170 40 0
-170 -41 0
-170 -42 0
-170 -43 0
-170 -44 0
-170 -45 0
-170 -46 0
-170 -47 0
-170 -48 0
-171 -33 0
-171 -34 0
-171 -35 0
-171 -36 0
-171 -37 0
-171 -38 0
-171 -39 0
-171 -40 0
-171 41 0
-171 -42 0
-171 43 0
-171 -44 0
-171 45 0
-171 -46 0
-171 47 0
-171 -48 0
-172 33 0
-172 -34 0
-172 35 0
-172 -36 0
-172 37 0
-172 -38 0
-172 39 0
-172 -40 0
-172 -41 0
-172 -42 0
-172 -43 0
-172 -44 0
-172 -45 0
-172 -46 0
-172 -47 0
-172 -48 0
-173 -33 0
-173 -34 2 0
-173 34 -2 0
-173 -35 0
-173 -36 4 0
-173 36 -4 0
-173 -37 0
-173 -38 6 0
-173 38 -6 0
-173 -39 0
-173 -40 8 0
-173 40 -8 0
-173 -41 0
-173 -42 10 0
-173 42 -10 0
-173 -43 0
-173 -44 12 0
-173 44 -12 0
-173 -45 0
-173 -46 14 0
-173 46 -14 0
-173 -47 0
-173 -48 16 0
-173 48 -16 0
-174 -33 0
-174 -34 -2 0
-174 34 2 0
-174 -35 0
-174 -36 -4 0
-174 36 4 0
-174 -37 0
-174 -38 -6 0
-174 38 6 0
-174 -39 0
-174 -40 -8 0
-174 40 8 0
-174 -41 0
-174 -42 -10 0
-174 42 10 0
-174 -43 0
-174 -44 -12 0
-174 44 12 0
-174 -45 0
-174 -46 -14 0
-174 46 14 0
-174 -47 0
-174 -48 -16 0
-174 48 16 0
-175 -33 1 0
-175 33 -1 0
-175 -34 0
-175 -35 3 0
-175 35 -3 0
-175 -36 0
-175 -37 5 0
-175 37 -5 0
-175 -38 0
-175 -39 7 0
-175 39 -7 0
-175 -40 0
-175 -41 9 0
-175 41 -9 0
-175 -42 0
-175 -43 11 0
-175 43 -11 0
-175 -44 0
-175 -45 13 0
-175 45 -13 0
-175 -46 0
-175 -47 15 0
-175 47 -15 0
-175 -48 0
-176 -33 -1 0
-176 33 1 0
-176 -34 0
-176 -35 -3 0
-176 35 3 0
-176 -36 0
-176 -37 -5 0
-176 37 5 0
-176 -38 0
-176 -39 -7 0
-176 39 7 0
-176 -40 0
-176 -41 -9 0
-176 41 9 0
-176 -42 0
-176 -43 -11 0
-176 43 11 0
-176 -44 0
-176 -45 -13 0
-176 45 13 0
-176 -46 0
-176 -47 -15 0
-176 47 15 0
-176 -48 0
-177 -33 0
-177 -34 18 0
-177 34 -18 0
-177 -35 0
-177 -36 20 0
-177 36 -20 0
-177 -37 0
-177 -38 22 0
-177 38 -22 0
-177 -39 0
-177 -40 24 0
-177 40 -24 0
-177 -41 0
-177 -42 26 0
-177 42 -26 0
-177 -43 0
-177 -44 28 0
-177 44 -28 0
-177 -45 0
-177 -46 30 0
-177 46 -30 0
-177 -47 0
-177 -48 32 0
-177 48 -32 0
-178 -33 0
-178 -34 -18 0
-178 34 18 0
-178 -35 0
-178 -36 -20 0
-178 36 20 0
-178 -37 0
-178 -38 -22 0
-178 38 22 0
-178 -39 0
-178 -40 -24 0
-178 40 24 0
-178 -41 0
-178 -42 -26 0
-178 42 26 0
-178 -43 0
-178 -44 -28 0
-178 44 28 0
-178 -45 0
-178 -46 -30 0
-178 46 30 0
-178 -47 0
-178 -48 -32 0
-178 48 32 0
-179 -33 17 0
-179 33 -17 0
-179 -34 0
-179 -35 19 0
-179 35 -19 0
-179 -36 0
-179 -37 21 0
-179 37 -21 0
-179 -38 0
-179 -39 23 0
-179 39 -23 0
-179 -40 0
-179 -41 25 0
-179 41 -25 0
-179 -42 0
-179 -43 27 0
-179 43 -27 0
-179 -44 0
-179 -45 29 0
-179 45 -29 0
-179 -46 0
-179 -47 31 0
-179 47 -31 0
-179 -48 0
-180 -33 -17 0
-180 33 17 0
-180 -34 0
-180 -35 -19 0
-180 35 19 0
-180 -36 0
-180 -37 -21 0
-180 37 21 0
-180 -38 0
-180 -39 -23 0
-180 39 23 0
-180 -40 0
-180 -41 -25 0
-180 41 25 0
-180 -42 0
-180 -43 -27 0
-180 43 27 0
-180 -44 0
-180 -45 -29 0
-180 45 29 0
-180 -46 0
-180 -47 -31 0
-180 47 31 0
-180 -48 0
-181 -33 0
-181 -34 0
-181 -35 0
-181 -36 0
-181 -37 0
-181 -38 0
-181 39 0
-181 40 0
-181 -41 0
-181 -42 0
-181 -43 0
-181 -44 0
-181 -45 0
-181 -46 0
-181 47 0
-181 48 0
-182 -33 0
-182 -34 0
-182 35 0
-182 36 0
-182 -37 0
-182 -38 0
-182 -39 0
-182 -40 0
-182 -41 0
-182 -42 0
-182 43 0
-182 44 0
-182 -45 0
-182 -46 0
-182 -47 0
-182 -48 0
-183 -33 0
-183 -34 0
-183 -35 0
-183 -36 0
-183 37 0
-183 38 0
-183 -39 0
-183 -40 0
-183 -41 0
-183 -42 0
-183 -43 0
-183 -44 0
-183 45 0
-183 46 0
-183 -47 0
-183 -48 0
-184 33 0
-184 34 0
-184 -35 0
-184 -36 0
-184 -37 0
-184 -38 0
-184 -39 0
-184 -40 0
-184 41 0
-184 42 0
-184 -43 0
-184 -44 0
-184 -45 0
-184 -46 0
-184 -47 0
-184 -48 0
-185 -33 0
-185 -34 0
-185 -35 0
-185 -36 0
-185 -37 0
-185 -38 0
-185 -39 0
-185 -40 0
-185 -41 0
-185 -42 0
-185 43 0
-185 44 0
-185 -45 0
-185 -46 0
-185 47 0
-185 48 0
-186 -33 0
-186 -34 0
-186 35 0
-186 36 0
-186 -37 0
-186 -38 0
-186 39 0
-186 40 0
-186 -41 0
-186 -42 0
-186 -43 0
-186 -44 0
-186 -45 0
-186 -46 0
-186 -47 0
-186 -48 0
-187 -33 0
-187 -34 0
-187 -35 0
-187 -36 0
-187 -37 0
-187 -38 0
-187 -39 0
-187 -40 0
-187 41 0
-187 42 0
-187 -43 0
-187 -44 0
-187 45 0
-187 46 0
-187 -47 0
-187 -48 0
-188 33 0
-188 34 0
-188 -35 0
-188 -36 0
-188 37 0
-188 38 0
-188 -39 0
-188 -40 0
-188 -41 0
-188 -42 0
-188 -43 0
-188 -44 0
-188 -45 0
-188 -46 0
-188 -47 0
-188 -48 0
-189 -33 0
-189 -34 0
-189 -35 3 0
-189 35 -3 0
-189 -36 4 0
-189 36 -4 0
-189 -37 0
-189 -38 0
-189 -39 7 0
-189 39 -7 0
-189 -40 8 0
-189 40 -8 0
-189 -41 0
-189 -42 0
-189 -43 11 0
-189 43 -11 0
-189 -44 12 0
-189 44 -12 0
-189 -45 0
-189 -46 0
-189 -47 15 0
-189 47 -15 0
-189 -48 16 0
-189 48 -16 0
-190 -33 0
-190 -34 0
-190 -35 -3 0
-190 35 3 0
-190 -36 -4 0
-190 36 4 0
-190 -37 0
-190 -38 0
-190 -39 -7 0
-190 39 7 0
-190 -40 -8 0
-190 40 8 0
-190 -41 0
-190 -42 0
-190 -43 -11 0
-190 43 11 0
-190 -44 -12 0
-190 44 12 0
-190 -45 0
-190 -46 0
-190 -47 -15 0
-190 47 15 0
-190 -48 -16 0
-190 48 16 0
-191 -33 1 0
-191 33 -1 0
-191 -34 2 0
-191 34 -2 0
-191 -35 0
-191 -36 0
-191 -37 5 0
-191 37 -5 0
-191 -38 6 0
-191 38 -6 0
-191 -39 0
-191 -40 0
-191 -41 9 0
-191 41 -9 0
-191 -42 10 0
-191 42 -10 0
-191 -43 0
-191 -44 0
-191 -45 13 0
-191 45 -13 0
-191 -46 14 0
-191 46 -14 0
-191 -47 0
-191 -48 0
-192 -33 -1 0
-192 33 1 0
-192 -34 -2 0
-192 34 2 0
-192 -35 0
-192 -36 0
-192 -37 -5 0
-192 37 5 0
-192 -38 -6 0
-192 38 6 0
-192 -39 0
-192 -40 0
-192 -41 -9 0
-192 41 9 0
-192 -42 -10 0
-192 42 10 0
-192 -43 0
-192 -44 0
-192 -45 -13 0
-192 45 13 0
-192 -46 -14 0
-192 46 14 0
-192 -47 0
-192 -48 0
-193 -33 0
-193 -34 0
-193 -35 19 0
-193 35 -19 0
-193 -36 20 0
-193 36 -20 0
-193 -37 0
-193 -38 0
-193 -39 23 0
-193 39 -23 0
-193 -40 24 0
-193 40 -24 0
-193 -41 0
-193 -42 0
-193 -43 27 0
-193 43 -27 0
-193 -44 28 0
-193 44 -28 0
-193 -45 0
-193 -46 0
-193 -47 31 0
-193 47 -31 0
-193 -48 32 0
-193 48 -32 0
-194 -33 0
-194 -34 0
-194 -35 -19 0
-194 35 19 0
-194 -36 -20 0
-194 36 20 0
-194 -37 0
-194 -38 0
-194 -39 -23 0
-194 39 23 0
-194 -40 -24 0
-194 40 24 0
-194 -41 0
-194 -42 0
-194 -43 -27 0
-194 43 27 0
-194 -44 -28 0
-194 44 28 0
-194 -45 0
-194 -46 0
-194 -47 -31 0
-194 47 31 0
-194 -48 -32 0
-194 48 32 0
-195 -33 17 0
-195 33 -17 0
-195 -34 18 0
-195 34 -18 0
-195 -35 0
-195 -36 0
-195 -37 21 0
-195 37 -21 0
-195 -38 22 0
-195 38 -22 0
-195 -39 0
-195 -40 0
-195 -41 25 0
-195 41 -25 0
-195 -42 26 0
-195 42 -26 0
-195 -43 0
-195 -44 0
-195 -45 29 0
-195 45 -29 0
-195 -46 30 0
-195 46 -30 0
-195 -47 0
-195 -48 0
-196 -33 -17 0
-196 33 17 0
-196 -34 -18 0
-196 34 18 0
-196 -35 0
-196 -36 0
-196 -37 -21 0
-196 37 21 0
-196 -38 -22 0
-196 38 22 0
-196 -39 0
-196 -40 0
-196 -41 -25 0
-196 41 25 0
-196 -42 -26 0
-196 42 26 0
-196 -43 0
-196 -44 0
-196 -45 -29 0
-196 45 29 0
-196 -46 -30 0
-196 46 30 0
-196 -47 0
-196 -48 0
-197 -33 0
-197 -34 0
-197 -35 0
-197 -36 0
-197 -37 0
-197 -38 0
-197 -39 0
-197 -40 0
-197 -41 0
-197 -42 0
-197 -43 0
-197 -44 0
-197 45 0
-197 46 0
-197 47 0
-197 48 0
-198 -33 0
-198 -34 0
-198 -35 0
-198 -36 0
-198 37 0
-198 38 0
-198 39 0
-198 40 0
-198 -41 0
-198 -42 0
-198 -43 0
-198 -44 0
-198 -45 0
-198 -46 0
-198 -47 0
-198 -48 0
-199 -33 0
-199 -34 0
-199 -35 0
-199 -36 0
-199 -37 0
-199 -38 0
-199 -39 0
-199 -40 0
-199 41 0
-199 42 0
-199 43 0
-199 44 0
-199 -45 0
-199 -46 0
-199 -47 0
-199 -48 0
-200 33 0
-200 34 0
-200 35 0
-200 36 0
-200 -37 0
-200 -38 0
-200 -39 0
-200 -40 0
-200 -41 0
-200 -42 0
-200 -43 0
-200 -44 0
-200 -45 0
-200 -46 0
-200 -47 0
-200 -48 0
-201 -33 0
-201 -34 0
-201 -35 0
-201 -36 0
-201 -37 5 0
-201 37 -5 0
-201 -38 6 0
-201 38 -6 0
-201 -39 7 0
-201 39 -7 0
-201 -40 8 0
-201 40 -8 0
-201 -41 0
-201 -42 0
-201 -43 0
-201 -44 0
-201 -45 13 0
-201 45 -13 0
-201 -46 14 0
-201 46 -14 0
-201 -47 15 0
-201 47 -15 0
-201 -48 16 0
-201 48 -16 0
-202 -33 0
-202 -34 0
-202 -35 0
-202 -36 0
-202 -37 -5 0
-202 37 5 0
-202 -38 -6 0
-202 38 6 0
-202 -39 -7 0
-202 39 7 0
-202 -40 -8 0
-202 40 8 0
-202 -41 0
-202 -42 0
-202 -43 0
-202 -44 0
-202 -45 -13 0
-202 45 13 0
-202 -46 -14 0
-202 46 14 0
-202 -47 -15 0
-202 47 15 0
-202 -48 -16 0
-202 48 16 0
-203 -33 1 0
-203 33 -1 0
-203 -34 2 0
-203 34 -2 0
-203 -35 3 0
-203 35 -3 0
-203 -36 4 0
-203 36 -4 0
-203 -37 0
-203 -38 0
-203 -39 0
-203 -40 0
-203 -41 9 0
-203 41 -9 0
-203 -42 10 0
-203 42 -10 0
-203 -43 11 0
-203 43 -11 0
-203 -44 12 0
-203 44 -12 0
-203 -45 0
-203 -46 0
-203 -47 0
-203 -48 0
-204 -33 -1 0
-204 33 1 0
-204 -34 -2 0
-204 34 2 0
-204 -35 -3 0
-204 35 3 0
-204 -36 -4 0
-204 36 4 0
-204 -37 0
-204 -38 0
-204 -39 0
-204 -40 0
-204 -41 -9 0
-204 41 9 0
-204 -42 -10 0
-204 42 10 0
-204 -43 -11 0
-204 43 11 0
-204 -44 -12 0
-204 44 12 0
-204 -45 0
-204 -46 0
-204 -47 0
-204 -48 0
-205 -33 0
-205 -34 0
-205 -35 0
-205 -36 0
-205 -37 21 0
-205 37 -21 0
-205 -38 22 0
-205 38 -22 0
-205 -39 23 0
-205 39 -23 0
-205 -40 24 0
-205 40 -24 0
-205 -41 0
-205 -42 0
-205 -43 0
-205 -44 0
-205 -45 29 0
-205 45 -29 0
-205 -46 30 0
-205 46 -30 0
-205 -47 31 0
-205 47 -31 0
-205 -48 32 0
-205 48 -32 0
-206 -33 0
-206 -34 0
-206 -35 0
-206 -36 0
-206 -37 -21 0
-206 37 21 0
-206 -38 -22 0
-206 38 22 0
-206 -39 -23 0
-206 39 23 0
-206 -40 -24 0
-206 40 24 0
-206 -41 0
-206 -42 0
-206 -43 0
-206 -44 0
-206 -45 -29 0
-206 45 29 0
-206 -46 -30 0
-206 46 30 0
-206 -47 -31 0
-206 47 31 0
-206 -48 -32 0
-206 48 32 0
-207 -33 17 0
-207 33 -17 0
-207 -34 18 0
-207 34 -18 0
-207 -35 19 0
-207 35 -19 0
-207 -36 20 0
-207 36 -20 0
-207 -37 0
-207 -38 0
-207 -39 0
-207 -40 0
-207 -41 25 0
-207 41 -25 0
-207 -42 26 0
-207 42 -26 0
-207 -43 27 0
-207 43 -27 0
-207 -44 28 0
-207 44 -28 0
-207 -45 0
-207 -46 0
-207 -47 0
-207 -48 0
-208 -33 -17 0
-208 33 17 0
-208 -34 -18 0
-208 34 18 0
-208 -35 -19 0
-208 35 19 0
-208 -36 -20 0
-208 36 20 0
-208 -37 0
-208 -38 0
-208 -39 0
-208 -40 0
-208 -41 -25 0
-208 41 25 0
-208 -42 -26 0
-208 42 26 0
-208 -43 -27 0
-208 43 27 0
-208 -44 -28 0
-208 44 28 0
-208 -45 0
-208 -46 0
-208 -47 0
-208 -48 0
-209 -33 0
-209 -34 0
-209 -35 0
-209 -36 0
-209 -37 0
-209 -38 0
-209 -39 0
-209 -40 0
-209 -41 9 0
-209 41 -9 0
-209 -42 10 0
-209 42 -10 0
-209 -43 11 0
-209 43 -11 0
-209 -44 12 0
-209 44 -12 0
-209 -45 13 0
-209 45 -13 0
-209 -46 14 0
-209 46 -14 0
-209 -47 15 0
-209 47 -15 0
-209 -48 16 0
-209 48 -16 0
-210 -33 0
-210 -34 0
-210 -35 0
-210 -36 0
-210 -37 0
-210 -38 0
-210 -39 0
-210 -40 0
-210 -41 -9 0
-210 41 9 0
-210 -42 -10 0
-210 42 10 0
-210 -43 -11 0
-210 43 11 0
-210 -44 -12 0
-210 44 12 0
-210 -45 -13 0
-210 45 13 0
-210 -46 -14 0
-210 46 14 0
-210 -47 -15 0
-210 47 15 0
-210 -48 -16 0
-210 48 16 0
-211 -33 1 0
-211 33 -1 0
-211 -34 2 0
-211 34 -2 0
-211 -35 3 0
-211 35 -3 0
-211 -36 4 0
-211 36 -4 0
-211 -37 5 0
-211 37 -5 0
-211 -38 6 0
-211 38 -6 0
-211 -39 7 0
-211 39 -7 0
-211 -40 8 0
-211 40 -8 0
-211 -41 0
-211 -42 0
-211 -43 0
-211 -44 0
-211 -45 0
-211 -46 0
-211 -47 0
-211 -48 0
-212 -33 -1 0
-212 33 1 0
-212 -34 -2 0
-212 34 2 0
-212 -35 -3 0
-212 35 3 0
-212 -36 -4 0
-212 36 4 0
-212 -37 -5 0
-212 37 5 0
-212 -38 -6 0
-212 38 6 0
-212 -39 -7 0
-212 39 7 0
-212 -40 -8 0
-212 40 8 0
-212 -41 0
-212 -42 0
-212 -43 0
-212 -44 0
-212 -45 0
-212 -46 0
-212 -47 0
-212 -48 0
-213 -33 0
-213 -34 0
-213 -35 0
-213 -36 0
-213 -37 0
-213 -38 0
-213 -39 0
-213 -40 0
-213 -41 25 0
-213 41 -25 0
-213 -42 26 0
-213 42 -26 0
-213 -43 27 0
-213 43 -27 0
-213 -44 28 0
-213 44 -28 0
-213 -45 29 0
-213 45 -29 0
-213 -46 30 0
-213 46 -30 0
-213 -47 31 0
-213 47 -31 0
-213 -48 32 0
-213 48 -32 0
-214 -33 0
-214 -34 0
-214 -35 0
-214 -36 0
-214 -37 0
-214 -38 0
-214 -39 0
-214 -40 0
-214 -41 -25 0
-214 41 25 0
-214 -42 -26 0
-214 42 26 0
-214 -43 -27 0
-214 43 27 0
-214 -44 -28 0
-214 44 28 0
-214 -45 -29 0
-214 45 29 0
-214 -46 -30 0
-214 46 30 0
-214 -47 -31 0
-214 47 31 0
-214 -48 -32 0
-214 48 32 0
-215 -33 17 0
-215 33 -17 0
-215 -34 18 0
-215 34 -18 0
-215 -35 19 0
-215 35 -19 0
-215 -36 20 0
-215 36 -20 0
-215 -37 21 0
-215 37 -21 0
-215 -38 22 0
-215 38 -22 0
-215 -39 23 0
-215 39 -23 0
-215 -40 24 0
-215 40 -24 0
-215 -41 0
-215 -42 0
-215 -43 0
-215 -44 0
-215 -45 0
-215 -46 0
-215 -47 0
-215 -48 0
-216 -33 -17 0
-216 33 17 0
-216 -34 -18 0
-216 34 18 0
-216 -35 -19 0
-216 35 19 0
-216 -36 -20 0
-216 36 20 0
-216 -37 -21 0
-216 37 21 0
-216 -38 -22 0
-216 38 22 0
-216 -39 -23 0
-216 39 23 0
-216 -40 -24 0
-216 40 24 0
-216 -41 0
-216 -42 0
-216 -43 0
-216 -44 0
-216 -45 0
-216 -46 0
-216 -47 0
-216 -48 0
-217 -33 1 0
-217 -33 17 0
-217 33 -1 -17 0
-217 -34 2 0
-217 -34 18 0
-217 34 -2 -18 0
-217 -35 3 0
-217 -35 19 0
-217 35 -3 -19 0
-217 -36 4 0
-217 -36 20 0
-217 36 -4 -20 0
-217 -37 5 0
-217 -37 21 0
-217 37 -5 -21 0
-217 -38 6 0
-217 -38 22 0
-217 38 -6 -22 0
-217 -39 7 0
-217 -39 23 0
-217 39 -7 -23 0
-217 -40 8 0
-217 -40 24 0
-217 40 -8 -24 0
-217 -41 9 0
-217 -41 25 0
-217 41 -9 -25 0
-217 -42 10 0
-217 -42 26 0
-217 42 -10 -26 0
-217 -43 11 0
-217 -43 27 0
-217 43 -11 -27 0
-217 -44 12 0
-217 -44 28 0
-217 44 -12 -28 0
-217 -45 13 0
-217 -45 29 0
-217 45 -13 -29 0
-217 -46 14 0
-217 -46 30 0
-217 46 -14 -30 0
-217 -47 15 0
-217 -47 31 0
-217 47 -15 -31 0
-217 -48 16 0
-217 -48 32 0
-217 48 -16 -32 0
-218 -33 1 0
-218 -33 -17 0
-218 33 -1 17 0
-218 -34 2 0
-218 -34 -18 0
-218 34 -2 18 0
-218 -35 3 0
-218 -35 -19 0
-218 35 -3 19 0
-218 -36 4 0
-218 -36 -20 0
-218 36 -4 20 0
-218 -37 5 0
-218 -37 -21 0
-218 37 -5 21 0
-218 -38 6 0
-218 -38 -22 0
-218 38 -6 22 0
-218 -39 7 0
-218 -39 -23 0
-218 39 -7 23 0
-218 -40 8 0
-218 -40 -24 0
-218 40 -8 24 0
-218 -41 9 0
-218 -41 -25 0
-218 41 -9 25 0
-218 -42 10 0
-218 -42 -26 0
-218 42 -10 26 0
-218 -43 11 0
-218 -43 -27 0
-218 43 -11 27 0
-218 -44 12 0
-218 -44 -28 0
-218 44 -12 28 0
-218 -45 13 0
-218 -45 -29 0
-218 45 -13 29 0
-218 -46 14 0
-218 -46 -30 0
-218 46 -14 30 0
-218 -47 15 0
-218 -47 -31 0
-218 47 -15 31 0
-218 -48 16 0
-218 -48 -32 0
-218 48 -16 32 0
-219 -33 -1 0
-219 -33 17 0
-219 33 1 -17 0
-219 -34 -2 0
-219 -34 18 0
-219 34 2 -18 0
-219 -35 -3 0
-219 -35 19 0
-219 35 3 -19 0
-219 -36 -4 0
-219 -36 20 0
-219 36 4 -20 0
-219 -37 -5 0
-219 -37 21 0
-219 37 5 -21 0
-219 -38 -6 0
-219 -38 22 0
-219 38 6 -22 0
-219 -39 -7 0
-219 -39 23 0
-219 39 7 -23 0
-219 -40 -8 0
-219 -40 24 0
-219 40 8 -24 0
-219 -41 -9 0
-219 -41 25 0
-219 41 9 -25 0
-219 -42 -10 0
-219 -42 26 0
-219 42 10 -26 0
-219 -43 -11 0
-219 -43 27 0
-219 43 11 -27 0
-219 -44 -12 0
-219 -44 28 0
-219 44 12 -28 0
-219 -45 -13 0
-219 -45 29 0
-219 45 13 -29 0
-219 -46 -14 0
-219 -46 30 0
-219 46 14 -30 0
-219 -47 -15 0
-219 -47 31 0
-219 47 15 -31 0
-219 -48 -16 0
-219 -48 32 0
-219 48 16 -32 0
-220 -33 -1 0
-220 -33 -17 0
-220 33 1 17 0
-220 -34 -2 0
-220 -34 -18 0
-220 34 2 18 0
-220 -35 -3 0
-220 -35 -19 0
-220 35 3 19 0
-220 -36 -4 0
-220 -36 -20 0
-220 36 4 20 0
-220 -37 -5 0
-220 -37 -21 0
-220 37 5 21 0
-220 -38 -6 0
-220 -38 -22 0
-220 38 6 22 0
-220 -39 -7 0
-220 -39 -23 0
-220 39 7 23 0
-220 -40 -8 0
-220 -40 -24 0
-220 40 8 24 0
-220 -41 -9 0
-220 -41 -25 0
-220 41 9 25 0
-220 -42 -10 0
-220 -42 -26 0
-220 42 10 26 0
-220 -43 -11 0
-220 -43 -27 0
-220 43 11 27 0
-220 -44 -12 0
-220 -44 -28 0
-220 44 12 28 0
-220 -45 -13 0
-220 -45 -29 0
-220 45 13 29 0
-220 -46 -14 0
-220 -46 -30 0
-220 46 14 30 0
-220 -47 -15 0
-220 -47 -31 0
-220 47 15 31 0
-220 -48 -16 0
-220 -48 -32 0
-220 48 16 32 0
221 222 223 224 225 226 227 228 229 230 231 232 233 234 235 236 237 238 239 240 241 242 243 244 245 246 247 248 249 250 251 252 253 254 255 256 257 258 259 260 261 262 263 264 265 266 267 268 269 270 271 272 273 274 275 276 277 278 279 280 281 282 283 284 285 286 287 288 289 290 291 292 293 294 295 296 297 298 299 300 301 302 303 304 0
-221 -222 0
-221 -223 0
-221 -224 0
-221 -225 0
-221 -226 0
-221 -227 0
-221 -228 0
-221 -229 0
-221 -230 0
-221 -231 0
-221 -232 0
-221 -233 0
-221 -234 0
-221 -235 0
-221 -236 0
-221 -237 0
-221 -238 0
-221 -239 0
-221 -240 0
-221 -241 0
-221 -242 0
-221 -243 0
-221 -244 0
-221 -245 0
-221 -246 0
-221 -247 0
-221 -248 0
-221 -249 0
-221 -250 0
-221 -251 0
-221 -252 0
-221 -253 0
-221 -254 0
-221 -255 0
-221 -256 0
-221 -257 0
-221 -258 0
-221 -259 0
-221 -260 0
-221 -261 0
-221 -262 0
-221 -263 0
-221 -264 0
-221 -265 0
-221 -266 0
-221 -267 0
-221 -268 0
-221 -269 0
-221 -270 0
-221 -271 0
-221 -272 0
-221 -273 0
-221 -274 0
-221 -275 0
-221 -276 0
-221 -277 0
-221 -278 0
-221 -279 0
-221 -280 0
-221 -281 0
-221 -282 0
-221 -283 0
-221 -284 0
-221 -285 0
-221 -286 0
-221 -287 0
-221 -288 0
-221 -289 0
-221 -290 0
-221 -291 0
-221 -292 0
-221 -293 0
-221 -294 0
-221 -295 0
-221 -296 0
-221 -297 0
-221 -298 0
-221 -299 0
-221 -300 0
-221 -301 0
-221 -302 0
-221 -303 0
-221 -304 0
-222 -223 0
-222 -224 0
-222 -225 0
-222 -226 0
-222 -227 0
-222 -228 0
-222 -229 0
-222 -230 0
-222 -231 0
-222 -232 0
-222 -233 0
-222 -234 0
-222 -235 0
-222 -236 0
-222 -237 0
-222 -238 0
-222 -239 0
-222 -240 0
-222 -241 0
-222 -242 0
-222 -243 0
-222 -244 0
-222 -245 0
-222 -246 0
-222 -247 0
-222 -248 0
-222 -249 0
-222 -250 0
-222 -251 0
-222 -252 0
-222 -253 0
-222 -254 0
-222 -255 0
-222 -256 0
-222 -257 0
-222 -258 0
-222 -259 0
-222 -260 0
-222 -261 0
-222 -262 0
-222 -263 0
-222 -264 0
-222 -265 0
-222 -266 0
-222 -267 0
-222 -268 0
-222 -269 0
-222 -270 0
-222 -271 0
-222 -272 0
-222 -273 0
-222 -274 0
-222 -275 0
-222 -276 0
-222 -277 0
-222 -278 0
-222 -279 0
-222 -280 0
-222 -281 0
-222 -282 0
-222 -283 0
-222 -284 0
-222 -285 0
-222 -286 0
-222 -287 0
-222 -288 0
-222 -289 0
-222 -290 0
-222 -291 0
-222 -292 0
-222 -293 0
-222 -294 0
-222 -295 0
-222 -296 0
-222 -297 0
-222 -298 0
-222 -299 0
-222 -300 0
-222 -301 0
-222 -302 0
-222 -303 0
-222 -304 0
-223 -224 0
-223 -225 0
-223 -226 0
-223 -227 0
-223 -228 0
-223 -229 0
-223 -230 0
-223 -231 0
-223 -232 0
-223 -233 0
-223 -234 0
-223 -235 0
-223 -236 0
-223 -237 0
-223 -238 0
-223 -239 0
-223 -240 0
-223 -241 0
-223 -242 0
-223 -243 0
-223 -244 0
-223 -245 0
-223 -246 0
-223 -247 0
-223 -248 0
-223 -249 0
-223 -250 0
-223 -251 0
-223 -252 0
-223 -253 0
-223 -254 0
-223 -255 0
-223 -256 0
-223 -257 0
-223 -258 0
-223 -259 0
-223 -260 0
-223 -261 0
-223 -262 0
-223 -263 0
-223 -264 0
-223 -265 0
-223 -266 0
-223 -267 0
-223 -268 0
-223 -269 0
-223 -270 0
-223 -271 0
-223 -272 0
-223 -273 0
-223 -274 0
-223 -275 0
-223 -276 0
-223 -277 0
-223 -278 0
-223 -279 0
-223 -280 0
-223 -281 0
-223 -282 0
-223 -283 0
-223 -284 0
-223 -285 0
-223 -286 0
-223 -287 0
-223 -288 0
-223 -289 0
-223 -290 0
-223 -291 0
-223 -292 0
-223 -293 0
-223 -294 0
-223 -295 0
-223 -296 0
-223 -297 0
-223 -298 0
-223 -299 0
-223 -300 0
-223 -301 0
-223 -302 0
-223 -303 0
-223 -304 0
-224 -225 0
-224 -226 0
-224 -227 0
-224 -228 0
-224 -229 0
-224 -230 0
-224 -231 0
-224 -232 0
-224 -233 0
-224 -234 0
-224 -235 0
-224 -236 0
-224 -237 0
-224 -238 0
-224 -239 0
-224 -240 0
-224 -241 0
-224 -242 0
-224 -243 0
-224 -244 0
-224 -245 0
-224 -246 0
-224 -247 0
-224 -248 0
-224 -249 0
-224 -250 0
-224 -251 0
-224 -252 0
-224 -253 0
-224 -254 0
-224 -255 0
-224 -256 0
-224 -257 0
-224 -258 0
-224 -259 0
-224 -260 0
-224 -261 0
-224 -262 0
-224 -263 0
-224 -264 0
-224 -265 0
-224 -266 0
-224 -267 0
-224 -268 0
-224 -269 0
-224 -270 0
-224 -271 0
-224 -272 0
-224 -273 0
-224 -274 0
-224 -275 0
-224 -276 0
-224 -277 0
-224 -278 0
-224 -279 0
-224 -280 0
-224 -281 0
-224 -282 0
-224 -283 0
-224 -284 0
-224 -285 0
-224 -286 0
-224 -287 0
-224 -288 0
-224 -289 0
-224 -290 0
-224 -291 0
-224 -292 0
-224 -293 0
-224 -294 0
-224 -295 0
-224 -296 0
-224 -297 0
-224 -298 0
-224 -299 0
-224 -300 0
-224 -301 0
-224 -302 0
-224 -303 0
-224 -304 0
-225 -226 0
-225 -227 0
-225 -228 0
-225 -229 0
-225 -230 0
-225 -231 0
-225 -232 0
-225 -233 0
-225 -234 0
-225 -235 0
-225 -236 0
-225 -237 0
-225 -238 0
-225 -239 0
-225 -240 0
-225 -241 0
-225 -242 0
-225 -243 0
-225 -244 0
-225 -245 0
-225 -246 0
-225 -247 0
-225 -248 0
-225 -249 0
-225 -250 0
-225 -251 0
-225 -252 0
-225 -253 0
-225 -254 0
-225 -255 0
-225 -256 0
-225 -257 0
-225 -258 0
-225 -259 0
-225 -260 0
-225 -261 0
-225 -262 0
-225 -263 0
-225 -264 0
-225 -265 0
-225 -266 0
-225 -267 0
-225 -268 0
-225 -269 0
-225 -270 0
-225 -271 0
-225 -272 0
-225 -273 0
-225 -274 0
-225 -275 0
-225 -276 0
-225 -277 0
-225 -278 0
-225 -279 0
-225 -280 0
-225 -281 0
-225 -282 0
-225 -283 0
-225 -284 0
-225 -285 0
-225 -286 0
-225 -287 0
-225 -288 0
-225 -289 0
-225 -290 0
-225 -291 0
-225 -292 0
-225 -293 0
-225 -294 0
-225 -295 0
-225 -296 0
-225 -297 0
-225 -298 0
-225 -299 0
-225 -300 0
-225 -301 0
-225 -302 0
-225 -303 0
-225 -304 0
-226 -227 0
-226 -228 0
-226 -229 0
-226 -230 0
-226 -231 0
-226 -232 0
-226 -233 0
-226 -234 0
-226 -235 0
-226 -236 0
-226 -237 0
-226 -238 0
-226 -239 0
-226 -240 0
-226 -241 0
-226 -242 0
-226 -243 0
-226 -244 0
-226 -245 0
-226 -246 0
-226 -247 0
-226 -248 0
-226 -249 0
-226 -250 0
-226 -251 0
-226 -252 0
-226 -253 0
-226 -254 0
-226 -255 0
-226 -256 0
-226 -257 0
-226 -258 0
-226 -259 0
-226 -260 0
-226 -261 0
-226 -262 0
-226 -263 0
-226 -264 0
-226 -265 0
-226 -266 0
-226 -267 0
-226 -268 0
-226 -269 0
-226 -270 0
-226 -271 0
-226 -272 0
-226 -273 0
-226 -274 0
-226 -275 0
-226 -276 0
-226 -277 0
-226 -278 0
-226 -279 0
-226 -280 0
-226 -281 0
-226 -282 0
-226 -283 0
-226 -284 0
-226 -285 0
-226 -286 0
-226 -287 0
-226 -288 0
-226 -289 0
-226 -290 0
-226 -291 0
-226 -292 0
-226 -293 0
-226 -294 0
-226 -295 0
-226 -296 0
-226 -297 0
-226 -298 0
-226 -299 0
-226 -300 0
-226 -301 0
-226 -302 0
-226 -303 0
-226 -304 0
-227 -228 0
-227 -229 0
-227 -230 0
-227 -231 0
-227 -232 0
-227 -233 0
-227 -234 0
-227 -235 0
-227 -236 0
-227 -237 0
-227 -238 0
-227 -239 0
-227 -240 0
-227 -241 0
-227 -242 0
-227 -243 0
-227 -244 0
-227 -245 0
-227 -246 0
-227 -247 0
-227 -248 0
-227 -249 0
-227 -250 0
-227 -251 0
-227 -252 0
-227 -253 0
-227 -254 0
-227 -255 0
-227 -256 0
-227 -257 0
-227 -258 0
-227 -259 0
-227 -260 0
-227 -261 0
-227 -262 0
-227 -263 0
-227 -264 0
-227 -265 0
-227 -266 0
-227 -267 0
-227 -268 0
-227 -269 0
-227 -270 0
-227 -271 0
-227 -272 0
-227 -273 0
-227 -274 0
-227 -275 0
-227 -276 0
-227 -277 0
-227 -278 0
-227 -279 0
-227 -280 0
-227 -281 0
-227 -282 0
-227 -283 0
-227 -284 0
-227 -285 0
-227 -286 0
-227 -287 0
-227 -288 0
-227 -289 0
-227 -290 0
-227 -291 0
-227 -292 0
-227 -293 0
-227 -294 0
-227 -295 0
-227 -296 0
-227 -297 0
-227 -298 0
-227 -299 0
-227 -300 0
-227 -301 0
-227 -302 0
-227 -303 0
-227 -304 0
-228 -229 0
-228 -230 0
-228 -231 0
-228 -232 0
-228 -233 0
-228 -234 0
-228 -235 0
-228 -236 0
-228 -237 0
-228 -238 0
-228 -239 0
-228 -240 0
-228 -241 0
-228 -242 0
-228 -243 0
-228 -244 0
-228 -245 0
-228 -246 0
-228 -247 0
-228 -248 0
-228 -249 0
-228 -250 0
-228 -251 0
-228 -252 0
-228 -253 0
-228 -254 0
-228 -255 0
-228 -256 0
-228 -257 0
-228 -258 0
-228 -259 0
-228 -260 0
-228 -261 0
-228 -262 0
-228 -263 0
-228 -264 0
-228 -265 0
-228 -266 0
-228 -267 0
-228 -268 0
-228 -269 0
-228 -270 0
-228 -271 0
-228 -272 0
-228 -273 0
-228 -274 0
-228 -275 0
-228 -276 0
-228 -277 0
-228 -278 0
-228 -279 0
-228 -280 0
-228 -281 0
-228 -282 0
-228 -283 0
-228 -284 0
-228 -285 0
-228 -286 0
-228 -287 0
-228 -288 0
-228 -289 0
-228 -290 0
-228 -291 0
-228 -292 0
-228 -293 0
-228 -294 0
-228 -295 0
-228 -296 0
-228 -297 0
-228 -298 0
-228 -299 0
-228 -300 0
-228 -301 0
-228 -302 0
-228 -303 0
-228 -304 0
-229 -230 0
-229 -231 0
-229 -232 0
-229 -233 0
-229 -234 0
-229 -235 0
-229 -236 0
-229 -237 0
-229 -238 0
-229 -239 0
-229 -240 0
-229 -241 0
-229 -242 0
-229 -243 0
-229 -244 0
-229 -245 0
-229 -246 0
-229 -247 0
-229 -248 0
-229 -249 0
-229 -250 0
-229 -251 0
-229 -252 0
-229 -253 0
-229 -254 0
-229 -255 0
-229 -256 0
-229 -257 0
-229 -258 0
-229 -259 0
-229 -260 0
-229 -261 0
-229 -262 0
-229 -263 0
-229 -264 0
-229 -265 0
-229 -266 0
-229 -267 0
-229 -268 0
-229 -269 0
-229 -270 0
-229 -271 0
-229 -272 0
-229 -273 0
-229 -274 0
-229 -275 0
-229 -276 0
-229 -277 0
-229 -278 0
-229 -279 0
-229 -280 0
-229 -281 0
-229 -282 0
-229 -283 0
-229 -284 0
-229 -285 0
-229 -286 0
-229 -287 0
-229 -288 0
-229 -289 0
-229 -290 0
-229 -291 0
-229 -292 0
-229 -293 0
-229 -294 0
-229 -295 0
-229 -296 0
-229 -297 0
-229 -298 0
-229 -299 0
-229 -300 0
-229 -301 0
-229 -302 0
-229 -303 0
-229 -304 0
-230 -231 0
-230 -232 0
-230 -233 0
-230 -234 0
-230 -235 0
-230 -236 0
-230 -237 0
-230 -238 0
-230 -239 0
-230 -240 0
-230 -241 0
-230 -242 0
-230 -243 0
-230 -244 0
-230 -245 0
-230 -246 0
-230 -247 0
-230 -248 0
-230 -249 0
-230 -250 0
-230 -251 0
-230 -252 0
-230 -253 0
-230 -254 0
-230 -255 0
-230 -256 0
-230 -257 0
-230 -258 0
-230 -259 0
-230 -260 0
-230 -261 0
-230 -262 0
-230 -263 0
-230 -264 0
-230 -265 0
-230 -266 0
-230 -267 0
-230 -268 0
-230 -269 0
-230 -270 0
-230 -271 0
-230 -272 0
-230 -273 0
-230 -274 0
-230 -275 0
-230 -276 0
-230 -277 0
-230 -278 0
-230 -279 0
-230 -280 0
-230 -281 0
-230 -282 0
-230 -283 0
-230 -284 0
-230 -285 0
-230 -286 0
-230 -287 0
-230 -288 0
-230 -289 0
-230 -290 0
-230 -291 0
-230 -292 0
-230 -293 0
-230 -294 0
-230 -295 0
-230 -296 0
-230 -297 0
-230 -298 0
-230 -299 0
-230 -300 0
-230 -301 0
-230 -302 0
-230 -303 0
-230 -304 0
-231 -232 0
-231 -233 0
-231 -234 0
-231 -235 0
-231 -236 0
-231 -237 0
-231 -238 0
-231 -239 0
-231 -240 0
-231 -241 0
-231 -242 0
-231 -243 0
-231 -244 0
-231 -245 0
-231 -246 0
-231 -247 0
-231 -248 0
-231 -249 0
-231 -250 0
-231 -251 0
-231 -252 0
-231 -253 0
-231 -254 0
-231 -255 0
-231 -256 0
-231 -257 0
-231 -258 0
-231 -259 0
-231 -260 0
-231 -261 0
-231 -262 0
-231 -263 0
-231 -264 0
-231 -265 0
-231 -266 0
-231 -267 0
-231 -268 0
-231 -269 0
-231 -270 0
-231 -271 0
-231 -272 0
-231 -273 0
-231 -274 0
-231 -275 0
-231 -276 0
-231 -277 0
-231 -278 0
-231 -279 0
-231 -280 0
-231 -281 0
-231 -282 0
-231 -283 0
-231 -284 0
-231 -285 0
-231 -286 0
-231 -287 0
-231 -288 0
-231 -289 0
-231 -290 0
-231 -291 0
-231 -292 0
-231 -293 0
-231 -294 0
-231 -295 0
-231 -296 0
-231 -297 0
-231 -298 0
-231 -299 0
-231 -300 0
-231 -301 0
-231 -302 0
-231 -303 0
-231 -304 0
-232 -233 0
-232 -234 0
-232 -235 0
-232 -236 0
-232 -237 0
-232 -238 0
-232 -239 0
-232 -240 0
-232 -241 0
-232 -242 0
-232 -243 0
-232 -244 0
-232 -245 0
-232 -246 0
-232 -247 0
-232 -248 0
-232 -249 0
-232 -250 0
-232 -251 0
-232 -252 0
-232 -253 0
-232 -254 0
-232 -255 0
-232 -256 0
-232 -257 0
-232 -258 0
-232 -259 0
-232 -260 0
-232 -261 0
-232 -262 0
-232 -263 0
-232 -264 0
-232 -265 0
-232 -266 0
-232 -267 0
-232 -268 0
-232 -269 0
-232 -270 0
-232 -271 0
-232 -272 0
-232 -273 0
-232 -274 0
-232 -275 0
-232 -276 0
-232 -277 0
-232 -278 0
-232 -279 0
-232 -280 0
-232 -281 0
-232 -282 0
-232 -283 0
-232 -284 0
-232 -285 0
-232 -286 0
-232 -287 0
-232 -288 0
-232 -289 0
-232 -290 0
-232 -291 0
-232 -292 0
-232 -293 0
-232 -294 0
-232 -295 0
-232 -296 0
-232 -297 0
-232 -298 0
-232 -299 0
-232 -300 0
-232 -301 0
-232 -302 0
-232 -303 0
-232 -304 0
-233 -234 0
-233 -235 0
-233 -236 0
-233 -237 0
-233 -238 0
-233 -239 0
-233 -240 0
-233 -241 0
-233 -242 0
-233 -243 0
-233 -244 0
-233 -245 0
-233 -246 0
-233 -247 0
-233 -248 0
-233 -249 0
-233 -250 0
-233 -251 0
-233 -252 0
-233 -253 0
-233 -254 0
-233 -255 0
-233 -256 0
-233 -257 0
-233 -258 0
-233 -259 0
-233 -260 0
-233 -261 0
-233 -262 0
-233 -263 0
-233 -264 0
-233 -265 0
-233 -266 0
-233 -267 0
-233 -268 0
-233 -269 0
-233 -270 0
-233 -271 0
-233 -272 0
-233 -273 0
-233 -274 0
-233 -275 0
-233 -276 0
-233 -277 0
-233 -278 0
-233 -279 0
-233 -280 0
-233 -281 0
-233 -282 0
-233 -283 0
-233 -284 0
-233 -285 0
-233 -286 0
-233 -287 0
-233 -288 0
-233 -289 0
-233 -290 0
-233 -291 0
-233 -292 0
-233 -293 0
-233 -294 0
-233 -295 0
-233 -296 0
-233 -297 0
-233 -298 0
-233 -299 0
-233 -300 0
-233 -301 0
-233 -302 0
-233 -303 0
-233 -304 0
-234 -235 0
-234 -236 0
-234 -237 0
-234 -238 0
-234 -239 0
-234 -240 0
-234 -241 0
-234 -242 0
-234 -243 0
-234 -244 0
-234 -245 0
-234 -246 0
-234 -247 0
-234 -248 0
-234 -249 0
-234 -250 0
-234 -251 0
-234 -252 0
-234 -253 0
-234 -254 0
-234 -255 0
-234 -256 0
-234 -257 0
-234 -258 0
-234 -259 0
-234 -260 0
-234 -261 0
-234 -262 0
-234 -263 0
-234 -264 0
-234 -265 0
-234 -266 0
-234 -267 0
-234 -268 0
-234 -269 0
-234 -270 0
-234 -271 0
-234 -272 0
-234 -273 0
-234 -274 0
-234 -275 0
-234 -276 0
-234 -277 0
-234 -278 0
-234 -279 0
-234 -280 0
-234 -281 0
-234 -282 0
-234 -283 0
-234 -284 0
-234 -285 0
-234 -286 0
-234 -287 0
-234 -288 0
-234 -289 0
-234 -290 0
-234 -291 0
-234 -292 0
-234 -293 0
-234 -294 0
-234 -295 0
-234 -296 0
-234 -297 0
-234 -298 0
-234 -299 0
-234 -300 0
-234 -301 0
-234 -302 0
-234 -303 0
-234 -304 0
-235 -236 0
-235 -237 0
-235 -238 0
-235 -239 0
-235 -240 0
-235 -241 0
-235 -242 0
-235 -243 0
-235 -244 0
-235 -245 0
-235 -246 0
-235 -247 0
-235 -248 0
-235 -249 0
-235 -250 0
-235 -251 0
-235 -252 0
-235 -253 0
-235 -254 0
-235 -255 0
-235 -256 0
-235 -257 0
-235 -258 0
-235 -259 0
-235 -260 0
-235 -261 0
-235 -262 0
-235 -263 0
-235 -264 0
-235 -265 0
-235 -266 0
-235 -267 0
-235 -268 0
-235 -269 0
-235 -270 0
-235 -271 0
-235 -272 0
-235 -273 0
-235 -274 0
-235 -275 0
-235 -276 0
-235 -277 0
-235 -278 0
-235 -279 0
-235 -280 0
-235 -281 0
-235 -282 0
-235 -283 0
-235 -284 0
-235 -285 0
-235 -286 0
-235 -287 0
-235 -288 0
-235 -289 0
-235 -290 0
-235 -291 0
-235 -292 0
-235 -293 0
-235 -294 0
-235 -295 0
-235 -296 0
-235 -297 0
-235 -298 0
-235 -299 0
-235 -300 0
-235 -301 0
-235 -302 0
-235 -303 0
-235 -304 0
-236 -237 0
-236 -238 0
-236 -239 0
-236 -240 0
-236 -241 0
-236 -242 0
-236 -243 0
-236 -244 0
-236 -245 0
-236 -246 0
-236 -247 0
-236 -248 0
-236 -249 0
-236 -250 0
-236 -251 0
-236 -252 0
-236 -253 0
-236 -254 0
-236 -255 0
-236 -256 0
-236 -257 0
-236 -258 0
-236 -259 0
-236 -260 0
-236 -261 0
-236 -262 0
-236 -263 0
-236 -264 0
-236 -265 0
-236 -266 0
-236 -267 0
-236 -268 0
-236 -269 0
-236 -270 0
-236 -271 0
-236 -272 0
-236 -273 0
-236 -274 0
-236 -275 0
-236 -276 0
-236 -277 0
-236 -278 0
-236 -279 0
-236 -280 0
-236 -281 0
-236 -282 0
-236 -283 0
-236 -284 0
-236 -285 0
-236 -286 0
-236 -287 0
-236 -288 0
-236 -289 0
-236 -290 0
-236 -291 0
-236 -292 0
-236 -293 0
-236 -294 0
-236 -295 0
-236 -296 0
-236 -297 0
-236 -298 0
-236 -299 0
-236 -300 0
-236 -301 0
-236 -302 0
-236 -303 0
-236 -304 0
-237 -238 0
-237 -239 0
-237 -240 0
-237 -241 0
-237 -242 0
-237 -243 0
-237 -244 0
-237 -245 0
-237 -246 0
-237 -247 0
-237 -248 0
-237 -249 0
-237 -250 0
-237 -251 0
-237 -252 0
-237 -253 0
-237 -254 0
-237 -255 0
-237 -256 0
-237 -257 0
-237 -258 0
-237 -259 0
-237 -260 0
-237 -261 0
-237 -262 0
-237 -263 0
-237 -264 0
-237 -265 0
-237 -266 0
-237 -267 0
-237 -268 0
-237 -269 0
-237 -270 0
-237 -271 0
-237 -272 0
-237 -273 0
-237 -274 0
-237 -275 0
-237 -276 0
-237 -277 0
-237 -278 0
-237 -279 0
-237 -280 0
-237 -281 0
-237 -282 0
-237 -283 0
-237 -284 0
-237 -285 0
-237 -286 0
-237 -287 0
-237 -288 0
-237 -289 0
-237 -290 0
-237 -291 0
-237 -292 0
-237 -293 0
-237 -294 0
-237 -295 0
-237 -296 0
-237 -297 0
-237 -298 0
-237 -299 0
-237 -300 0
-237 -301 0
-237 -302 0
-237 -303 0
-237 -304 0
-238 -239 0
-238 -240 0
-238 -241 0
-238 -242 0
-238 -243 0
-238 -244 0
-238 -245 0
-238 -246 0
-238 -247 0
-238 -248 0
-238 -249 0
-238 -250 0
-238 -251 0
-238 -252 0
-238 -253 0
-238 -254 0
-238 -255 0
-238 -256 0
-238 -257 0
-238 -258 0
-238 -259 0
-238 -260 0
-238 -261 0
-238 -262 0
-238 -263 0
-238 -264 0
-238 -265 0
-238 -266 0
-238 -267 0
-238 -268 0
-238 -269 0
-238 -270 0
-238 -271 0
-238 -272 0
-238 -273 0
-238 -274 0
-238 -275 0
-238 -276 0
-238 -277 0
-238 -278 0
-238 -279 0
-238 -280 0
-238 -281 0
-238 -282 0
-238 -283 0
-238 -284 0
-238 -285 0
-238 -286 0
-238 -287 0
-238 -288 0
-238 -289 0
-238 -290 0
-238 -291 0
-238 -292 0
-238 -293 0
-238 -294 0
-238 -295 0
-238 -296 0
-238 -297 0
-238 -298 0
-238 -299 0
-238 -300 0
-238 -301 0
-238 -302 0
-238 -303 0
-238 -304 0
-239 -240 0
-239 -241 0
-239 -242 0
-239 -243 0
-239 -244 0
-239 -245 0
-239 -246 0
-239 -247 0
-239 -248 0
-239 -249 0
-239 -250 0
-239 -251 0
-239 -252 0
-239 -253 0
-239 -254 0
-239 -255 0
-239 -256 0
-239 -257 0
-239 -258 0
-239 -259 0
-239 -260 0
-239 -261 0
-239 -262 0
-239 -263 0
-239 -264 0
-239 -265 0
-239 -266 0
-239 -267 0
-239 -268 0
-239 -269 0
-239 -270 0
-239 -271 0
-239 -272 0
-239 -273 0
-239 -274 0
-239 -275 0
-239 -276 0
-239 -277 0
-239 -278 0
-239 -279 0
-239 -280 0
-239 -281 0
-239 -282 0
-239 -283 0
-239 -284 0
-239 -285 0
-239 -286 0
-239 -287 0
-239 -288 0
-239 -289 0
-239 -290 0
-239 -291 0
-239 -292 0
-239 -293 0
-239 -294 0
-239 -295 0
-239 -296 0
-239 -297 0
-239 -298 0
-239 -299 0
-239 -300 0
-239 -301 0
-239 -302 0
-239 -303 0
-239 -304 0
-240 -241 0
-240 -242 0
-240 -243 0
-240 -244 0
-240 -245 0
-240 -246 0
-240 -247 0
-240 -248 0
-240 -249 0
-240 -250 0
-240 -251 0
-240 -252 0
-240 -253 0
-240 -254 0
-240 -255 0
-240 -256 0
-240 -257 0
-240 -258 0
-240 -259 0
-240 -260 0
-240 -261 0
-240 -262 0
-240 -263 0
-240 -264 0
-240 -265 0
-240 -266 0
-240 -267 0
-240 -268 0
-240 -269 0
-240 -270 0
-240 -271 0
-240 -272 0
-240 -273 0
-240 -274 0
-240 -275 0
-240 -276 0
-240 -277 0
-240 -278 0
-240 -279 0
-240 -280 0
-240 -281 0
-240 -282 0
-240 -283 0
-240 -284 0
-240 -285 0
-240 -286 0
-240 -287 0
-240 -288 0
-240 -289 0
-240 -290 0
-240 -291 0
-240 -292 0
-240 -293 0
-240 -294 0
-240 -295 0
-240 -296 0
-240 -297 0
-240 -298 0
-240 -299 0
-240 -300 0
-240 -301 0
-240 -302 0
-240 -303 0
-240 -304 0
-241 -242 0
-241 -243 0
-241 -244 0
-241 -245 0
-241 -246 0
-241 -247 0
-241 -248 0
-241 -249 0
-241 -250 0
-241 -251 0
-241 -252 0
-241 -253 0
-241 -254 0
-241 -255 0
-241 -256 0
-241 -257 0
-241 -258 0
-241 -259 0
-241 -260 0
-241 -261 0
-241 -262 0
-241 -263 0
-241 -264 0
-241 -265 0
-241 -266 0
-241 -267 0
-241 -268 0
-241 -269 0
-241 -270 0
-241 -271 0
-241 -272 0
-241 -273 0
-241 -274 0
-241 -275 0
-241 -276 0
-241 -277 0
-241 -278 0
-241 -279 0
-241 -280 0
-241 -281 0
-241 -282 0
-241 -283 0
-241 -284 0
-241 -285 0
-241 -286 0
-241 -287 0
-241 -288 0
-241 -289 0
-241 -290 0
-241 -291 0
-241 -292 0
-241 -293 0
-241 -294 0
-241 -295 0
-241 -296 0
-241 -297 0
-241 -298 0
-241 -299 0
-241 -300 0
-241 -301 0
-241 -302 0
-241 -303 0
-241 -304 0
-242 -243 0
-242 -244 0
-242 -245 0
-242 -246 0
-242 -247 0
-242 -248 0
-242 -249 0
-242 -250 0
-242 -251 0
-242 -252 0
-242 -253 0
-242 -254 0
-242 -255 0
-242 -256 0
-242 -257 0
-242 -258 0
-242 -259 0
-242 -260 0
-242 -261 0
-242 -262 0
-242 -263 0
-242 -264 0
-242 -265 0
-242 -266 0
-242 -267 0
-242 -268 0
-242 -269 0
-242 -270 0
-242 -271 0
-242 -272 0
-242 -273 0
-242 -274 0
-242 -275 0
-242 -276 0
-242 -277 0
-242 -278 0
-242 -279 0
-242 -280 0
-242 -281 0
-242 -282 0
-242 -283 0
-242 -284 0
-242 -285 0
-242 -286 0
-242 -287 0
-242 -288 0
-242 -289 0
-242 -290 0
-242 -291 0
-242 -292 0
-242 -293 0
-242 -294 0
-242 -295 0
-242 -296 0
-242 -297 0
-242 -298 0
-242 -299 0
-242 -300 0
-242 -301 0
-242 -302 0
-242 -303 0
-242 -304 0
-243 -244 0
-243 -245 0
-243 -246 0
-243 -247 0
-243 -248 0
-243 -249 0
-243 -250 0
-243 -251 0
-243 -252 0
-243 -253 0
-243 -254 0
-243 -255 0
-243 -256 0
-243 -257 0
-243 -258 0
-243 -259 0
-243 -260 0
-243 -261 0
-243 -262 0
-243 -263 0
-243 -264 0
-243 -265 0
-243 -266 0
-243 -267 0
-243 -268 0
-243 -269 0
-243 -270 0
-243 -271 0
-243 -272 0
-243 -273 0
-243 -274 0
-243 -275 0
-243 -276 0
-243 -277 0
-243 -278 0
-243 -279 0
-243 -280 0
-243 -281 0
-243 -282 0
-243 -283 0
-243 -284 0
-243 -285 0
-243 -286 0
-243 -287 0
-243 -288 0
-243 -289 0
-243 -290 0
-243 -291 0
-243 -292 0
-243 -293 0
-243 -294 0
-243 -295 0
-243 -296 0
-243 -297 0
-243 -298 0
-243 -299 0
-243 -300 0
-243 -301 0
-243 -302 0
-243 -303 0
-243 -304 0
-244 -245 0
-244 -246 0
-244 -247 0
-244 -248 0
-244 -249 0
-244 -250 0
-244 -251 0
-244 -252 0
-244 -253 0
-244 -254 0
-244 -255 0
-244 -256 0
-244 -257 0
-244 -258 0
-244 -259 0
-244 -260 0
-244 -261 0
-244 -262 0
-244 -263 0
-244 -264 0
-244 -265 0
-244 -266 0
-244 -267 0
-244 -268 0
-244 -269 0
-244 -270 0
-244 -271 0
-244 -272 0
-244 -273 0
-244 -274 0
-244 -275 0
-244 -276 0
-244 -277 0
-244 -278 0
-244 -279 0
-244 -280 0
-244 -281 0
-244 -282 0
-244 -283 0
-244 -284 0
-244 -285 0
-244 -286 0
-244 -287 0
-244 -288 0
-244 -289 0
-244 -290 0
-244 -291 0
-244 -292 0
-244 -293 0
-244 -294 0
-244 -295 0
-244 -296 0
-244 -297 0
-244 -298 0
-244 -299 0
-244 -300 0
-244 -301 0
-244 -302 0
-244 -303 0
-244 -304 0
-245 -246 0
-245 -247 0
-245 -248 0
-245 -249 0
-245 -250 0
-245 -251 0
-245 -252 0
-245 -253 0
-245 -254 0
-245 -255 0
-245 -256 0
-245 -257 0
-245 -258 0
-245 -259 0
-245 -260 0
-245 -261 0
-245 -262 0
-245 -263 0
-245 -264 0
-245 -265 0
-245 -266 0
-245 -267 0
-245 -268 0
-245 -269 0
-245 -270 0
-245 -271 0
-245 -272 0
-245 -273 0
-245 -274 0
-245 -275 0
-245 -276 0
-245 -277 0
-245 -278 0
-245 -279 0
-245 -280 0
-245 -281 0
-245 -282 0
-245 -283 0
-245 -284 0
-245 -285 0
-245 -286 0
-245 -287 0
-245 -288 0
-245 -289 0
-245 -290 0
-245 -291 0
-245 -292 0
-245 -293 0
-245 -294 0
-245 -295 0
-245 -296 0
-245 -297 0
-245 -298 0
-245 -299 0
-245 -300 0
-245 -301 0
-245 -302 0
-245 -303 0
-245 -304 0
-246 -247 0
-246 -248 0
-246 -249 0
-246 -250 0
-246 -251 0
-246 -252 0
-246 -253 0
-246 -254 0
-246 -255 0
-246 -256 0
-246 -257 0
-246 -258 0
-246 -259 0
-246 -260 0
-246 -261 0
-246 -262 0
-246 -263 0
-246 -264 0
-246 -265 0
-246 -266 0
-246 -267 0
-246 -268 0
-246 -269 0
-246 -270 0
-246 -271 0
-246 -272 0
-246 -273 0
-246 -274 0
-246 -275 0
-246 -276 0
-246 -277 0
-246 -278 0
-246 -279 0
-246 -280 0
-246 -281 0
-246 -282 0
-246 -283 0
-246 -284 0
-246 -285 0
-246 -286 0
-246 -287 0
-246 -288 0
-246 -289 0
-246 -290 0
-246 -291 0
-246 -292 0
-246 -293 0
-246 -294 0
-246 -295 0
-246 -296 0
-246 -297 0
-246 -298 0
-246 -299 0
-246 -300 0
-246 -301 0
-246 -302 0
-246 -303 0
-246 -304 0
-247 -248 0
-247 -249 0
-247 -250 0
-247 -251 0
-247 -252 0
-247 -253 0
-247 -254 0
-247 -255 0
-247 -256 0
-247 -257 0
-247 -258 0
-247 -259 0
-247 -260 0
-247 -261 0
-247 -262 0
-247 -263 0
-247 -264 0
-247 -265 0
-247 -266 0
-247 -267 0
-247 -268 0
-247 -269 0
-247 -270 0
-247 -271 0
-247 -272 0
-247 -273 0
-247 -274 0
-247 -275 0
-247 -276 0
-247 -277 0
-247 -278 0
-247 -279 0
-247 -280 0
-247 -281 0
-247 -282 0
-247 -283 0
-247 -284 0
-247 -285 0
-247 -286 0
-247 -287 0
-247 -288 0
-247 -289 0
-247 -290 0
-247 -291 0
-247 -292 0
-247 -293 0
-247 -294 0
-247 -295 0
-247 -296 0
-247 -297 0
-247 -298 0
-247 -299 0
-247 -300 0
-247 -301 0
-247 -302 0
-247 -303 0
-247 -304 0
-248 -249 0
-248 -250 0
-248 -251 0
-248 -252 0
-248 -253 0
-248 -254 0
-248 -255 0
-248 -256 0
-248 -257 0
-248 -258 0
-248 -259 0
-248 -260 0
-248 -261 0
-248 -262 0
-248 -263 0
-248 -264 0
-248 -265 0
-248 -266 0
-248 -267 0
-248 -268 0
-248 -269 0
-248 -270 0
-248 -271 0
-248 -272 0
-248 -273 0
-248 -274 0
-248 -275 0
-248 -276 0
-248 -277 0
-248 -278 0
-248 -279 0
-248 -280 0
-248 -281 0
-248 -282 0
-248 -283 0
-248 -284 0
-248 -285 0
-248 -286 0
-248 -287 0
-248 -288 0
-248 -289 0
-248 -290 0
-248 -291 0
-248 -292 0
-248 -293 0
-248 -294 0
-248 -295 0
-248 -296 0
-248 -297 0
-248 -298 0
-248 -299 0
-248 -300 0
-248 -301 0
-248 -302 0
-248 -303 0
-248 -304 0
-249 -250 0
-249 -251 0
-249 -252 0
-249 -253 0
-249 -254 0
-249 -255 0
-249 -256 0
-249 -257 0
-249 -258 0
-249 -259 0
-249 -260 0
-249 -261 0
-249 -262 0
-249 -263 0
-249 -264 0
-249 -265 0
-249 -266 0
-249 -267 0
-249 -268 0
-249 -269 0
-249 -270 0
-249 -271 0
-249 -272 0
-249 -273 0
-249 -274 0
-249 -275 0
-249 -276 0
-249 -277 0
-249 -278 0
-249 -279 0
-249 -280 0
-249 -281 0
-249 -282 0
-249 -283 0
-249 -284 0
-249 -285 0
-249 -286 0
-249 -287 0
-249 -288 0
-249 -289 0
-249 -290 0
-249 -291 0
-249 -292 0
-249 -293 0
-249 -294 0
-249 -295 0
-249 -296 0
-249 -297 0
-249 -298 0
-249 -299 0
-249 -300 0
-249 -301 0
-249 -302 0
-249 -303 0
-249 -304 0
-250 -251 0
-250 -252 0
-250 -253 0
-250 -254 0
-250 -255 0
-250 -256 0
-250 -257 0
-250 -258 0
-250 -259 0
-250 -260 0
-250 -261 0
-250 -262 0
-250 -263 0
-250 -264 0
-250 -265 0
-250 -266 0
-250 -267 0
-250 -268 0
-250 -269 0
-250 -270 0
-250 -271 0
-250 -272 0
-250 -273 0
-250 -274 0
-250 -275 0
-250 -276 0
-250 -277 0
-250 -278 0
-250 -279 0
-250 -280 0
-250 -281 0
-250 -282 0
-250 -283 0
-250 -284 0
-250 -285 0
-250 -286 0
-250 -287 0
-250 -288 0
-250 -289 0
-250 -290 0
-250 -291 0
-250 -292 0
-250 -293 0
-250 -294 0
-250 -295 0
-250 -296 0
-250 -297 0
-250 -298 0
-250 -299 0
-250 -300 0
-250 -301 0
-250 -302 0
-250 -303 0
-250 -304 0
-251 -252 0
-251 -253 0
-251 -254 0
-251 -255 0
-251 -256 0
-251 -257 0
-251 -258 0
-251 -259 0
-251 -260 0
-251 -261 0
-251 -262 0
-251 -263 0
-251 -264 0
-251 -265 0
-251 -266 0
-251 -267 0
-251 -268 0
-251 -269 0
-251 -270 0
-251 -271 0
-251 -272 0
-251 -273 0
-251 -274 0
-251 -275 0
-251 -276 0
-251 -277 0
-251 -278 0
-251 -279 0
-251 -280 0
-251 -281 0
-251 -282 0
-251 -283 0
-251 -284 0
-251 -285 0
-251 -286 0
-251 -287 0
-251 -288 0
-251 -289 0
-251 -290 0
-251 -291 0
-251 -292 0
-251 -293 0
-251 -294 0
-251 -295 0
-251 -296 0
-251 -297 0
-251 -298 0
-251 -299 0
-251 -300 0
-251 -301 0
-251 -302 0
-251 -303 0
-251 -304 0
-252 -253 0
-252 -254 0
-252 -255 0
-252 -256 0
-252 -257 0
-252 -258 0
-252 -259 0
-252 -260 0
-252 -261 0
-252 -262 0
-252 -263 0
-252 -264 0
-252 -265 0
-252 -266 0
-252 -267 0
-252 -268 0
-252 -269 0
-252 -270 0
-252 -271 0
-252 -272 0
-252 -273 0
-252 -274 0
-252 -275 0
-252 -276 0
-252 -277 0
-252 -278 0
-252 -279 0
-252 -280 0
-252 -281 0
-252 -282 0
-252 -283 0
-252 -284 0
-252 -285 0
-252 -286 0
-252 -287 0
-252 -288 0
-252 -289 0
-252 -290 0
-252 -291 0
-252 -292 0
-252 -293 0
-252 -294 0
-252 -295 0
-252 -296 0
-252 -297 0
-252 -298 0
-252 -299 0
-252 -300 0
-252 -301 0
-252 -302 0
-252 -303 0
-252 -304 0
-253 -254 0
-253 -255 0
-253 -256 0
-253 -257 0
-253 -258 0
-253 -259 0
-253 -260 0
-253 -261 0
-253 -262 0
-253 -263 0
-253 -264 0
-253 -265 0
-253 -266 0
-253 -267 0
-253 -268 0
-253 -269 0
-253 -270 0
-253 -271 0
-253 -272 0
-253 -273 0
-253 -274 0
-253 -275 0
-253 -276 0
-253 -277 0
-253 -278 0
-253 -279 0
-253 -280 0
-253 -281 0
-253 -282 0
-253 -283 0
-253 -284 0
-253 -285 0
-253 -286 0
-253 -287 0
-253 -288 0
-253 -289 0
-253 -290 0
-253 -291 0
-253 -292 0
-253 -293 0
-253 -294 0
-253 -295 0
-253 -296 0
-253 -297 0
-253 -298 0
-253 -299 0
-253 -300 0
-253 -301 0
-253 -302 0
-253 -303 0
-253 -304 0
-254 -255 0
-254 -256 0
-254 -257 0
-254 -258 0
-254 -259 0
-254 -260 0
-254 -261 0
-254 -262 0
-254 -263 0
-254 -264 0
-254 -265 0
-254 -266 0
-254 -267 0
-254 -268 0
-254 -269 0
-254 -270 0
-254 -271 0
-254 -272 0
-254 -273 0
-254 -274 0
-254 -275 0
-254 -276 0
-254 -277 0
-254 -278 0
-254 -279 0
-254 -280 0
-254 -281 0
-254 -282 0
-254 -283 0
-254 -284 0
-254 -285 0
-254 -286 0
-254 -287 0
-254 -288 0
-254 -289 0
-254 -290 0
-254 -291 0
-254 -292 0
-254 -293 0
-254 -294 0
-254 -295 0
-254 -296 0
-254 -297 0
-254 -298 0
-254 -299 0
-254 -300 0
-254 -301 0
-254 -302 0
-254 -303 0
-254 -304 0
-255 -256 0
-255 -257 0
-255 -258 0
-255 -259 0
-255 -260 0
-255 -261 0
-255 -262 0
-255 -263 0
-255 -264 0
-255 -265 0
-255 -266 0
-255 -267 0
-255 -268 0
-255 -269 0
-255 -270 0
-255 -271 0
-255 -272 0
-255 -273 0
-255 -274 0
-255 -275 0
-255 -276 0
-255 -277 0
-255 -278 0
-255 -279 0
-255 -280 0
-255 -281 0
-255 -282 0
-255 -283 0
-255 -284 0
-255 -285 0
-255 -286 0
-255 -287 0
-255 -288 0
-255 -289 0
-255 -290 0
-255 -291 0
-255 -292 0
-255 -293 0
-255 -294 0
-255 -295 0
-255 -296 0
-255 -297 0
-255 -298 0
-255 -299 0
-255 -300 0
-255 -301 0
-255 -302 0
-255 -303 0
-255 -304 0
-256 -257 0
-256 -258 0
-256 -259 0
-256 -260 0
-256 -261 0
-256 -262 0
-256 -263 0
-256 -264 0
-256 -265 0
-256 -266 0
-256 -267 0
-256 -268 0
-256 -269 0
-256 -270 0
-256 -271 0
-256 -272 0
-256 -273 0
-256 -274 0
-256 -275 0
-256 -276 0
-256 -277 0
-256 -278 0
-256 -279 0
-256 -280 0
-256 -281 0
-256 -282 0
-256 -283 0
-256 -284 0
-256 -285 0
-256 -286 0
-256 -287 0
-256 -288 0
-256 -289 0
-256 -290 0
-256 -291 0
-256 -292 0
-256 -293 0
-256 -294 0
-256 -295 0
-256 -296 0
-256 -297 0
-256 -298 0
-256 -299 0
-256 -300 0
-256 -301 0
-256 -302 0
-256 -303 0
-256 -304 0
-257 -258 0
-257 -259 0
-257 -260 0
-257 -261 0
-257 -262 0
-257 -263 0
-257 -264 0
-257 -265 0
-257 -266 0
-257 -267 0
-257 -268 0
-257 -269 0
-257 -270 0
-257 -271 0
-257 -272 0
-257 -273 0
-257 -274 0
-257 -275 0
-257 -276 0
-257 -277 0
-257 -278 0
-257 -279 0
-257 -280 0
-257 -281 0
-257 -282 0
-257 -283 0
-257 -284 0
-257 -285 0
-257 -286 0
-257 -287 0
-257 -288 0
-257 -289 0
-257 -290 0
-257 -291 0
-257 -292 0
-257 -293 0
-257 -294 0
-257 -295 0
-257 -296 0
-257 -297 0
-257 -298 0
-257 -299 0
-257 -300 0
-257 -301 0
-257 -302 0
-257 -303 0
-257 -304 0
-258 -259 0
-258 -260 0
-258 -261 0
-258 -262 0
-258 -263 0
-258 -264 0
-258 -265 0
-258 -266 0
-258 -267 0
-258 -268 0
-258 -269 0
-258 -270 0
-258 -271 0
-258 -272 0
-258 -273 0
-258 -274 0
-258 -275 0
-258 -276 0
-258 -277 0
-258 -278 0
-258 -279 0
-258 -280 0
-258 -281 0
-258 -282 0
-258 -283 0
-258 -284 0
-258 -285 0
-258 -286 0
-258 -287 0
-258 -288 0
-258 -289 0
-258 -290 0
-258 -291 0
-258 -292 0
-258 -293 0
-258 -294 0
-258 -295 0
-258 -296 0
-258 -297 0
-258 -298 0
-258 -299 0
-258 -300 0
-258 -301 0
-258 -302 0
-258 -303 0
-258 -304 0
-259 -260 0
-259 -261 0
-259 -262 0
-259 -263 0
-259 -264 0
-259 -265 0
-259 -266 0
-259 -267 0
-259 -268 0
-259 -269 0
-259 -270 0
-259 -271 0
-259 -272 0
-259 -273 0
-259 -274 0
-259 -275 0
-259 -276 0
-259 -277 0
-259 -278 0
-259 -279 0
-259 -280 0
-259 -281 0
-259 -282 0
-259 -283 0
-259 -284 0
-259 -285 0
-259 -286 0
-259 -287 0
-259 -288 0
-259 -289 0
-259 -290 0
-259 -291 0
-259 -292 0
-259 -293 0
-259 -294 0
-259 -295 0
-259 -296 0
-259 -297 0
-259 -298 0
-259 -299 0
-259 -300 0
-259 -301 0
-259 -302 0
-259 -303 0
-259 -304 0
-260 -261 0
-260 -262 0
-260 -263 0
-260 -264 0
-260 -265 0
-260 -266 0
-260 -267 0
-260 -268 0
-260 -269 0
-260 -270 0
-260 -271 0
-260 -272 0
-260 -273 0
-260 -274 0
-260 -275 0
-260 -276 0
-260 -277 0
-260 -278 0
-260 -279 0
-260 -280 0
-260 -281 0
-260 -282 0
-260 -283 0
-260 -284 0
-260 -285 0
-260 -286 0
-260 -287 0
-260 -288 0
-260 -289 0
-260 -290 0
-260 -291 0
-260 -292 0
-260 -293 0
-260 -294 0
-260 -295 0
-260 -296 0
-260 -297 0
-260 -298 0
-260 -299 0
-260 -300 0
-260 -301 0
-260 -302 0
-260 -303 0
-260 -304 0
-261 -262 0
-261 -263 0
-261 -264 0
-261 -265 0
-261 -266 0
-261 -267 0
-261 -268 0
-261 -269 0
-261 -270 0
-261 -271 0
-261 -272 0
-261 -273 0
-261 -274 0
-261 -275 0
-261 -276 0
-261 -277 0
-261 -278 0
-261 -279 0
-261 -280 0
-261 -281 0
-261 -282 0
-261 -283 0
-261 -284 0
-261 -285 0
-261 -286 0
-261 -287 0
-261 -288 0
-261 -289 0
-261 -290 0
-261 -291 0
-261 -292 0
-261 -293 0
-261 -294 0
-261 -295 0
-261 -296 0
-261 -297 0
-261 -298 0
-261 -299 0
-261 -300 0
-261 -301 0
-261 -302 0
-261 -303 0
-261 -304 0
-262 -263 0
-262 -264 0
-262 -265 0
-262 -266 0
-262 -267 0
-262 -268 0
-262 -269 0
-262 -270 0
-262 -271 0
-262 -272 0
-262 -273 0
-262 -274 0
-262 -275 0
-262 -276 0
-262 -277 0
-262 -278 0
-262 -279 0
-262 -280 0
-262 -281 0
-262 -282 0
-262 -283 0
-262 -284 0
-262 -285 0
-262 -286 0
-262 -287 0
-262 -288 0
-262 -289 0
-262 -290 0
-262 -291 0
-262 -292 0
-262 -293 0
-262 -294 0
-262 -295 0
-262 -296 0
-262 -297 0
-262 -298 0
-262 -299 0
-262 -300 0
-262 -301 0
-262 -302 0
-262 -303 0
-262 -304 0
-263 -264 0
-263 -265 0
-263 -266 0
-263 -267 0
-263 -268 0
-263 -269 0
-263 -270 0
-263 -271 0
-263 -272 0
-263 -273 0
-263 -274 0
-263 -275 0
-263 -276 0
-263 -277 0
-263 -278 0
-263 -279 0
-263 -280 0
-263 -281 0
-263 -282 0
-263 -283 0
-263 -284 0
-263 -285 0
-263 -286 0
-263 -287 0
-263 -288 0
-263 -289 0
-263 -290 0
-263 -291 0
-263 -292 0
-263 -293 0
-263 -294 0
-263 -295 0
-263 -296 0
-263 -297 0
-263 -298 0
-263 -299 0
-263 -300 0
-263 -301 0
-263 -302 0
-263 -303 0
-263 -304 0
-264 -265 0
-264 -266 0
-264 -267 0
-264 -268 0
-264 -269 0
-264 -270 0
-264 -271 0
-264 -272 0
-264 -273 0
-264 -274 0
-264 -275 0
-264 -276 0
-264 -277 0
-264 -278 0
-264 -279 0
-264 -280 0
-264 -281 0
-264 -282 0
-264 -283 0
-264 -284 0
-264 -285 0
-264 -286 0
-264 -287 0
-264 -288 0
-264 -289 0
-264 -290 0
-264 -291 0
-264 -292 0
-264 -293 0
-264 -294 0
-264 -295 0
-264 -296 0
-264 -297 0
-264 -298 0
-264 -299 0
-264 -300 0
-264 -301 0
-264 -302 0
-264 -303 0
-264 -304 0
-265 -266 0
-265 -267 0
-265 -268 0
-265 -269 0
-265 -270 0
-265 -271 0
-265 -272 0
-265 -273 0
-265 -274 0
-265 -275 0
-265 -276 0
-265 -277 0
-265 -278 0
-265 -279 0
-265 -280 0
-265 -281 0
-265 -282 0
-265 -283 0
-265 -284 0
-265 -285 0
-265 -286 0
-265 -287 0
-265 -288 0
-265 -289 0
-265 -290 0
-265 -291 0
-265 -292 0
-265 -293 0
-265 -294 0
-265 -295 0
-265 -296 0
-265 -297 0
-265 -298 0
-265 -299 0
-265 -300 0
-265 -301 0
-265 -302 0
-265 -303 0
-265 -304 0
-266 -267 0
-266 -268 0
-266 -269 0
-266 -270 0
-266 -271 0
-266 -272 0
-266 -273 0
-266 -274 0
-266 -275 0
-266 -276 0
-266 -277 0
-266 -278 0
-266 -279 0
-266 -280 0
-266 -281 0
-266 -282 0
-266 -283 0
-266 -284 0
-266 -285 0
-266 -286 0
-266 -287 0
-266 -288 0
-266 -289 0
-266 -290 0
-266 -291 0
-266 -292 0
-266 -293 0
-266 -294 0
-266 -295 0
-266 -296 0
-266 -297 0
-266 -298 0
-266 -299 0
-266 -300 0
-266 -301 0
-266 -302 0
-266 -303 0
-266 -304 0
-267 -268 0
-267 -269 0
-267 -270 0
-267 -271 0
-267 -272 0
-267 -273 0
-267 -274 0
-267 -275 0
-267 -276 0
-267 -277 0
-267 -278 0
-267 -279 0
-267 -280 0
-267 -281 0
-267 -282 0
-267 -283 0
-267 -284 0
-267 -285 0
-267 -286 0
-267 -287 0
-267 -288 0
-267 -289 0
-267 -290 0
-267 -291 0
-267 -292 0
-267 -293 0
-267 -294 0
-267 -295 0
-267 -296 0
-267 -297 0
-267 -298 0
-267 -299 0
-267 -300 0
-267 -301 0
-267 -302 0
-267 -303 0
-267 -304 0
-268 -269 0
-268 -270 0
-268 -271 0
-268 -272 0
-268 -273 0
-268 -274 0
-268 -275 0
-268 -276 0
-268 -277 0
-268 -278 0
-268 -279 0
-268 -280 0
-268 -281 0
-268 -282 0
-268 -283 0
-268 -284 0
-268 -285 0
-268 -286 0
-268 -287 0
-268 -288 0
-268 -289 0
-268 -290 0
-268 -291 0
-268 -292 0
-268 -293 0
-268 -294 0
-268 -295 0
-268 -296 0
-268 -297 0
-268 -298 0
-268 -299 0
-268 -300 0
-268 -301 0
-268 -302 0
-268 -303 0
-268 -304 0
-269 -270 0
-269 -271 0
-269 -272 0
-269 -273 0
-269 -274 0
-269 -275 0
-269 -276 0
-269 -277 0
-269 -278 0
-269 -279 0
-269 -280 0
-269 -281 0
-269 -282 0
-269 -283 0
-269 -284 0
-269 -285 0
-269 -286 0
-269 -287 0
-269 -288 0
-269 -289 0
-269 -290 0
-269 -291 0
-269 -292 0
-269 -293 0
-269 -294 0
-269 -295 0
-269 -296 0
-269 -297 0
-269 -298 0
-269 -299 0
-269 -300 0
-269 -301 0
-269 -302 0
-269 -303 0
-269 -304 0
-270 -271 0
-270 -272 0
-270 -273 0
-270 -274 0
-270 -275 0
-270 -276 0
-270 -277 0
-270 -278 0
-270 -279 0
-270 -280 0
-270 -281 0
-270 -282 0
-270 -283 0
-270 -284 0
-270 -285 0
-270 -286 0
-270 -287 0
-270 -288 0
-270 -289 0
-270 -290 0
-270 -291 0
-270 -292 0
-270 -293 0
-270 -294 0
-270 -295 0
-270 -296 0
-270 -297 0
-270 -298 0
-270 -299 0
-270 -300 0
-270 -301 0
-270 -302 0
-270 -303 0
-270 -304 0
-271 -272 0
-271 -273 0
-271 -274 0
-271 -275 0
-271 -276 0
-271 -277 0
-271 -278 0
-271 -279 0
-271 -280 0
-271 -281 0
-271 -282 0
-271 -283 0
-271 -284 0
-271 -285 0
-271 -286 0
-271 -287 0
-271 -288 0
-271 -289 0
-271 -290 0
-271 -291 0
-271 -292 0
-271 -293 0
-271 -294 0
-271 -295 0
-271 -296 0
-271 -297 0
-271 -298 0
-271 -299 0
-271 -300 0
-271 -301 0
-271 -302 0
-271 -303 0
-271 -304 0
-272 -273 0
-272 -274 0
-272 -275 0
-272 -276 0
-272 -277 0
-272 -278 0
-272 -279 0
-272 -280 0
-272 -281 0
-272 -282 0
-272 -283 0
-272 -284 0
-272 -285 0
-272 -286 0
-272 -287 0
-272 -288 0
-272 -289 0
-272 -290 0
-272 -291 0
-272 -292 0
-272 -293 0
-272 -294 0
-272 -295 0
-272 -296 0
-272 -297 0
-272 -298 0
-272 -299 0
-272 -300 0
-272 -301 0
-272 -302 0
-272 -303 0
-272 -304 0
-273 -274 0
-273 -275 0
-273 -276 0
-273 -277 0
-273 -278 0
-273 -279 0
-273 -280 0
-273 -281 0
-273 -282 0
-273 -283 0
-273 -284 0
-273 -285 0
-273 -286 0
-273 -287 0
-273 -288 0
-273 -289 0
-273 -290 0
-273 -291 0
-273 -292 0
-273 -293 0
-273 -294 0
-273 -295 0
-273 -296 0
-273 -297 0
-273 -298 0
-273 -299 0
-273 -300 0
-273 -301 0
-273 -302 0
-273 -303 0
-273 -304 0
-274 -275 0
-274 -276 0
-274 -277 0
-274 -278 0
-274 -279 0
-274 -280 0
-274 -281 0
-274 -282 0
-274 -283 0
-274 -284 0
-274 -285 0
-274 -286 0
-274 -287 0
-274 -288 0
-274 -289 0
-274 -290 0
-274 -291 0
-274 -292 0
-274 -293 0
-274 -294 0
-274 -295 0
-274 -296 0
-274 -297 0
-274 -298 0
-274 -299 0
-274 -300 0
-274 -301 0
-274 -302 0
-274 -303 0
-274 -304 0
-275 -276 0
-275 -277 0
-275 -278 0
-275 -279 0
-275 -280 0
-275 -281 0
-275 -282 0
-275 -283 0
-275 -284 0
-275 -285 0
-275 -286 0
-275 -287 0
-275 -288 0
-275 -289 0
-275 -290 0
-275 -291 0
-275 -292 0
-275 -293 0
-275 -294 0
-275 -295 0
-275 -296 0
-275 -297 0
-275 -298 0
-275 -299 0
-275 -300 0
-275 -301 0
-275 -302 0
-275 -303 0
-275 -304 0
-276 -277 0
-276 -278 0
-276 -279 0
-276 -280 0
-276 -281 0
-276 -282 0
-276 -283 0
-276 -284 0
-276 -285 0
-276 -286 0
-276 -287 0
-276 -288 0
-276 -289 0
-276 -290 0
-276 -291 0
-276 -292 0
-276 -293 0
-276 -294 0
-276 -295 0
-276 -296 0
-276 -297 0
-276 -298 0
-276 -299 0
-276 -300 0
-276 -301 0
-276 -302 0
-276 -303 0
-276 -304 0
-277 -278 0
-277 -279 0
-277 -280 0
-277 -281 0
-277 -282 0
-277 -283 0
-277 -284 0
-277 -285 0
-277 -286 0
-277 -287 0
-277 -288 0
-277 -289 0
-277 -290 0
-277 -291 0
-277 -292 0
-277 -293 0
-277 -294 0
-277 -295 0
-277 -296 0
-277 -297 0
-277 -298 0
-277 -299 0
-277 -300 0
-277 -301 0
-277 -302 0
-277 -303 0
-277 -304 0
-278 -279 0
-278 -280 0
-278 -281 0
-278 -282 0
-278 -283 0
-278 -284 0
-278 -285 0
-278 -286 0
-278 -287 0
-278 -288 0
-278 -289 0
-278 -290 0
-278 -291 0
-278 -292 0
-278 -293 0
-278 -294 0
-278 -295 0
-278 -296 0
-278 -297 0
-278 -298 0
-278 -299 0
-278 -300 0
-278 -301 0
-278 -302 0
-278 -303 0
-278 -304 0
-279 -280 0
-279 -281 0
-279 -282 0
-279 -283 0
-279 -284 0
-279 -285 0
-279 -286 0
-279 -287 0
-279 -288 0
-279 -289 0
-279 -290 0
-279 -291 0
-279 -292 0
-279 -293 0
-279 -294 0
-279 -295 0
-279 -296 0
-279 -297 0
-279 -298 0
-279 -299 0
-279 -300 0
-279 -301 0
-279 -302 0
-279 -303 0
-279 -304 0
-280 -281 0
-280 -282 0
-280 -283 0
-280 -284 0
-280 -285 0
-280 -286 0
-280 -287 0
-280 -288 0
-280 -289 0
-280 -290 0
-280 -291 0
-280 -292 0
-280 -293 0
-280 -294 0
-280 -295 0
-280 -296 0
-280 -297 0
-280 -298 0
-280 -299 0
-280 -300 0
-280 -301 0
-280 -302 0
-280 -303 0
-280 -304 0
-281 -282 0
-281 -283 0
-281 -284 0
-281 -285 0
-281 -286 0
-281 -287 0
-281 -288 0
-281 -289 0
-281 -290 0
-281 -291 0
-281 -292 0
-281 -293 0
-281 -294 0
-281 -295 0
-281 -296 0
-281 -297 0
-281 -298 0
-281 -299 0
-281 -300 0
-281 -301 0
-281 -302 0
-281 -303 0
-281 -304 0
-282 -283 0
-282 -284 0
-282 -285 0
-282 -286 0
-282 -287 0
-282 -288 0
-282 -289 0
-282 -290 0
-282 -291 0
-282 -292 0
-282 -293 0
-282 -294 0
-282 -295 0
-282 -296 0
-282 -297 0
-282 -298 0
-282 -299 0
-282 -300 0
-282 -301 0
-282 -302 0
-282 -303 0
-282 -304 0
-283 -284 0
-283 -285 0
-283 -286 0
-283 -287 0
-283 -288 0
-283 -289 0
-283 -290 0
-283 -291 0
-283 -292 0
-283 -293 0
-283 -294 0
-283 -295 0
-283 -296 0
-283 -297 0
-283 -298 0
-283 -299 0
-283 -300 0
-283 -301 0
-283 -302 0
-283 -303 0
-283 -304 0
-284 -285 0
-284 -286 0
-284 -287 0
-284 -288 0
-284 -289 0
-284 -290 0
-284 -291 0
-284 -292 0
-284 -293 0
-284 -294 0
-284 -295 0
-284 -296 0
-284 -297 0
-284 -298 0
-284 -299 0
-284 -300 0
-284 -301 0
-284 -302 0
-284 -303 0
-284 -304 0
-285 -286 0
-285 -287 0
-285 -288 0
-285 -289 0
-285 -290 0
-285 -291 0
-285 -292 0
-285 -293 0
-285 -294 0
-285 -295 0
-285 -296 0
-285 -297 0
-285 -298 0
-285 -299 0
-285 -300 0
-285 -301 0
-285 -302 0
-285 -303 0
-285 -304 0
-286 -287 0
-286 -288 0
-286 -289 0
-286 -290 0
-286 -291 0
-286 -292 0
-286 -293 0
-286 -294 0
-286 -295 0
-286 -296 0
-286 -297 0
-286 -298 0
-286 -299 0
-286 -300 0
-286 -301 0
-286 -302 0
-286 -303 0
-286 -304 0
-287 -288 0
-287 -289 0
-287 -290 0
-287 -291 0
-287 -292 0
-287 -293 0
-287 -294 0
-287 -295 0
-287 -296 0
-287 -297 0
-287 -298 0
-287 -299 0
-287 -300 0
-287 -301 0
-287 -302 0
-287 -303 0
-287 -304 0
-288 -289 0
-288 -290 0
-288 -291 0
-288 -292 0
-288 -293 0
-288 -294 0
-288 -295 0
-288 -296 0
-288 -297 0
-288 -298 0
-288 -299 0
-288 -300 0
-288 -301 0
-288 -302 0
-288 -303 0
-288 -304 0
-289 -290 0
-289 -291 0
-289 -292 0
-289 -293 0
-289 -294 0
-289 -295 0
-289 -296 0
-289 -297 0
-289 -298 0
-289 -299 0
-289 -300 0
-289 -301 0
-289 -302 0
-289 -303 0
-289 -304 0
-290 -291 0
-290 -292 0
-290 -293 0
-290 -294 0
-290 -295 0
-290 -296 0
-290 -297 0
-290 -298 0
-290 -299 0
-290 -300 0
-290 -301 0
-290 -302 0
-290 -303 0
-290 -304 0
-291 -292 0
-291 -293 0
-291 -294 0
-291 -295 0
-291 -296 0
-291 -297 0
-291 -298 0
-291 -299 0
-291 -300 0
-291 -301 0
-291 -302 0
-291 -303 0
-291 -304 0
-292 -293 0
-292 -294 0
-292 -295 0
-292 -296 0
-292 -297 0
-292 -298 0
-292 -299 0
-292 -300 0
-292 -301 0
-292 -302 0
-292 -303 0
-292 -304 0
-293 -294 0
-293 -295 0
-293 -296 0
-293 -297 0
-293 -298 0
-293 -299 0
-293 -300 0
-293 -301 0
-293 -302 0
-293 -303 0
-293 -304 0
-294 -295 0
-294 -296 0
-294 -297 0
-294 -298 0
-294 -299 0
-294 -300 0
-294 -301 0
-294 -302 0
-294 -303 0
-294 -304 0
-295 -296 0
-295 -297 0
-295 -298 0
-295 -299 0
-295 -300 0
-295 -301 0
-295 -302 0
-295 -303 0
-295 -304 0
-296 -297 0
-296 -298 0
-296 -299 0
-296 -300 0
-296 -301 0
-296 -302 0
-296 -303 0
-296 -304 0
-297 -298 0
-297 -299 0
-297 -300 0
-297 -301 0
-297 -302 0
-297 -303 0
-297 -304 0
-298 -299 0
-298 -300 0
-298 -301 0
-298 -302 0
-298 -303 0
-298 -304 0
-299 -300 0
-299 -301 0
-299 -302 0
-299 -303 0
-299 -304 0
-300 -301 0
-300 -302 0
-300 -303 0
-300 -304 0
-301 -302 0
-301 -303 0
-301 -304 0
-302 -303 0
-302 -304 0
-303 -304 0
-221 -49 0
-221 -50 0
-221 -51 0
-221 52 0
-221 -53 0
-221 -54 0
-221 -55 0
-221 56 0
-221 -57 0
-221 -58 0
-221 -59 0
-221 60 0
-221 -61 0
-221 -62 0
-221 -63 0
-221 64 0
-222 -49 0
-222 50 0
-222 -51 0
-222 -52 0
-222 -53 0
-222 54 0
-222 -55 0
-222 -56 0
-222 -57 0
-222 58 0
-222 -59 0
-222 -60 0
-222 -61 0
-222 62 0
-222 -63 0
-222 -64 0
-223 -49 0
-223 -50 0
-223 51 0
-223 -52 0
-223 -53 0
-223 -54 0
-223 55 0
-223 -56 0
-223 -57 0
-223 -58 0
-223 59 0
-223 -60 0
-223 -61 0
-223 -62 0
-223 63 0
-223 -64 0
-224 49 0
-224 -50 0
-224 -51 0
-224 -52 0
-224 53 0
-224 -54 0
-224 -55 0
-224 -56 0
-224 57 0
-224 -58 0
-224 -59 0
-224 -60 0
-224 61 0
-224 -62 0
-224 -63 0
-224 -64 0
-225 -49 0
-225 -50 0
-225 -51 0
-225 -52 0
-225 -53 0
-225 54 0
-225 -55 0
-225 56 0
-225 -57 0
-225 -58 0
-225 -59 0
-225 -60 0
-225 -61 0
-225 62 0
-225 -63 0
-225 64 0
-226 -49 0
-226 50 0
-226 -51 0
-226 52 0
-226 -53 0
-226 -54 0
-226 -55 0
-226 -56 0
-226 -57 0
-226 58 0
-226 -59 0
-226 60 0
-226 -61 0
-226 -62 0
-226 -63 0
-226 -64 0
-227 -49 0
-227 -50 0
-227 -51 0
-227 -52 0
-227 53 0
-227 -54 0
-227 55 0
-227 -56 0
-227 -57 0
-227 -58 0
-227 -59 0
-227 -60 0
-227 61 0
-227 -62 0
-227 63 0
-227 -64 0
-228 49 0
-228 -50 0
-228 51 0
-228 -52 0
-228 -53 0
-228 -54 0
-228 -55 0
-228 -56 0
-228 57 0
-228 -58 0
-228 59 0
-228 -60 0
-228 -61 0
-228 -62 0
-228 -63 0
-228 -64 0
-229 -49 0
-229 -50 0
-229 -51 0
-229 -52 0
-229 -53 0
-229 -54 0
-229 -55 0
-229 -56 0
-229 -57 0
-229 58 0
-229 -59 0
-229 60 0
-229 -61 0
-229 62 0
-229 -63 0
-229 64 0
-230 -49 0
-230 50 0
-230 -51 0
-230 52 0
-230 -53 0
-230 54 0
-230 -55 0
-230 56 0
-230 -57 0
-230 -58 0
-230 -59 0
-230 -60 0
-230 -61 0
-230 -62 0
-230 -63 0
-230 -64 0
-231 -49 0
-231 -50 0
-231 -51 0
-231 -52 0
-231 -53 0
-231 -54 0
-231 -55 0
-231 -56 0
-231 57 0
-231 -58 0
-231 59 0
-231 -60 0
-231 61 0
-231 -62 0
-231 63 0
-231 -64 0
-232 49 0
-232 -50 0
-232 51 0
-232 -52 0
-232 53 0
-232 -54 0
-232 55 0
-232 -56 0
-232 -57 0
-232 -58 0
-232 -59 0
-232 -60 0
-232 -61 0
-232 -62 0
-232 -63 0
-232 -64 0
-233 -49 0
-233 -50 2 0
-233 50 -2 0
-233 -51 0
-233 -52 4 0
-233 52 -4 0
-233 -53 0
-233 -54 6 0
-233 54 -6 0
-233 -55 0
-233 -56 8 0
-233 56 -8 0
-233 -57 0
-233 -58 10 0
-233 58 -10 0
-233 -59 0
-233 -60 12 0
-233 60 -12 0
-233 -61 0
-233 -62 14 0
-233 62 -14 0
-233 -63 0
-233 -64 16 0
-233 64 -16 0
-234 -49 0
-234 -50 -2 0
-234 50 2 0
-234 -51 0
-234 -52 -4 0
-234 52 4 0
-234 -53 0
-234 -54 -6 0
-234 54 6 0
-234 -55 0
-234 -56 -8 0
-234 56 8 0
-234 -57 0
-234 -58 -10 0
-234 58 10 0
-234 -59 0
-234 -60 -12 0
-234 60 12 0
-234 -61 0
-234 -62 -14 0
-234 62 14 0
-234 -63 0
-234 -64 -16 0
-234 64 16 0
-235 -49 1 0
-235 49 -1 0
-235 -50 0
-235 -51 3 0
-235 51 -3 0
-235 -52 0
-235 -53 5 0
-235 53 -5 0
-235 -54 0
-235 -55 7 0
-235 55 -7 0
-235 -56 0
-235 -57 9 0
-235 57 -9 0
-235 -58 0
-235 -59 11 0
-235 59 -11 0
-235 -60 0
-235 -61 13 0
-235 61 -13 0
-235 -62 0
-235 -63 15 0
-235 63 -15 0
-235 -64 0
-236 -49 -1 0
-236 49 1 0
-236 -50 0
-236 -51 -3 0
-236 51 3 0
-236 -52 0
-236 -53 -5 0
-236 53 5 0
-236 -54 0
-236 -55 -7 0
-236 55 7 0
-236 -56 0
-236 -57 -9 0
-236 57 9 0
-236 -58 0
-236 -59 -11 0
-236 59 11 0
-236 -60 0
-236 -61 -13 0
-236 61 13 0
-236 -62 0
-236 -63 -15 0
-236 63 15 0
-236 -64 0
-237 -49 0
-237 -50 18 0
-237 50 -18 0
-237 -51 0
-237 -52 20 0
-237 52 -20 0
-237 -53 0
-237 -54 22 0
-237 54 -22 0
-237 -55 0
-237 -56 24 0
-237 56 -24 0
-237 -57 0
-237 -58 26 0
-237 58 -26 0
-237 -59 0
-237 -60 28 0
-237 60 -28 0
-237 -61 0
-237 -62 30 0
-237 62 -30 0
-237 -63 0
-237 -64 32 0
-237 64 -32 0
-238 -49 0
-238 -50 -18 0
-238 50 18 0
-238 -51 0
-238 -52 -20 0
-238 52 20 0
-238 -53 0
-238 -54 -22 0
-238 54 22 0
-238 -55 0
-238 -56 -24 0
-238 56 24 0
-238 -57 0
-238 -58 -26 0
-238 58 26 0
-238 -59 0
-238 -60 -28 0
-238 60 28 0
-238 -61 0
-238 -62 -30 0
-238 62 30 0
-238 -63 0
-238 -64 -32 0
-238 64 32 0
-239 -49 17 0
-239 49 -17 0
-239 -50 0
-239 -51 19 0
-239 51 -19 0
-239 -52 0
-239 -53 21 0
-239 53 -21 0
-239 -54 0
-239 -55 23 0
-239 55 -23 0
-239 -56 0
-239 -57 25 0
-239 57 -25 0
-239 -58 0
-239 -59 27 0
-239 59 -27 0
-239 -60 0
-239 -61 29 0
-239 61 -29 0
-239 -62 0
-239 -63 31 0
-239 63 -31 0
-239 -64 0
-240 -49 -17 0
-240 49 17 0
-240 -50 0
-240 -51 -19 0
-240 51 19 0
-240 -52 0
-240 -53 -21 0
-240 53 21 0
-240 -54 0
-240 -55 -23 0
-240 55 23 0
-240 -56 0
-240 -57 -25 0
-240 57 25 0
-240 -58 0
-240 -59 -27 0
-240 59 27 0
-240 -60 0
-240 -61 -29 0
-240 61 29 0
-240 -62 0
-240 -63 -31 0
-240 63 31 0
-240 -64 0
-241 -49 0
-241 -50 34 0
-241 50 -34 0
-241 -51 0
-241 -52 36 0
-241 52 -36 0
-241 -53 0
-241 -54 38 0
-241 54 -38 0
-241 -55 0
-241 -56 40 0
-241 56 -40 0
-241 -57 0
-241 -58 42 0
-241 58 -42 0
-241 -59 0
-241 -60 44 0
-241 60 -44 0
-241 -61 0
-241 -62 46 0
-241 62 -46 0
-241 -63 0
-241 -64 48 0
-241 64 -48 0
-242 -49 0
-242 -50 -34 0
-242 50 34 0
-242 -51 0
-242 -52 -36 0
-242 52 36 0
-242 -53 0
-242 -54 -38 0
-242 54 38 0
-242 -55 0
-242 -56 -40 0
-242 56 40 0
-242 -57 0
-242 -58 -42 0
-242 58 42 0
-242 -59 0
-242 -60 -44 0
-242 60 44 0
-242 -61 0
-242 -62 -46 0
-242 62 46 0
-242 -63 0
-242 -64 -48 0
-242 64 48 0
-243 -49 33 0
-243 49 -33 0
-243 -50 0
-243 -51 35 0
-243 51 -35 0
-243 -52 0
-243 -53 37 0
-243 53 -37 0
-243 -54 0
-243 -55 39 0
-243 55 -39 0
-243 -56 0
-243 -57 41 0
-243 57 -41 0
-243 -58 0
-243 -59 43 0
-243 59 -43 0
-243 -60 0
-243 -61 45 0
-243 61 -45 0
-243 -62 0
-243 -63 47 0
-243 63 -47 0
-243 -64 0
-244 -49 -33 0
-244 49 33 0
-244 -50 0
-244 -51 -35 0
-244 51 35 0
-244 -52 0
-244 -53 -37 0
-244 53 37 0
-244 -54 0
-244 -55 -39 0
-244 55 39 0
-244 -56 0
-244 -57 -41 0
-244 57 41 0
-244 -58 0
-244 -59 -43 0
-244 59 43 0
-244 -60 0
-244 -61 -45 0
-244 61 45 0
-244 -62 0
-244 -63 -47 0
-244 63 47 0
-244 -64 0
-245 -49 0
-245 -50 0
-245 -51 0
-245 -52 0
-245 -53 0
-245 -54 0
-245 55 0
-245 56 0
-245 -57 0
-245 -58 0
-245 -59 0
-245 -60 0
-245 -61 0
-245 -62 0
-245 63 0
-245 64 0
-246 -49 0
-246 -50 0
-246 51 0
-246 52 0
-246 -53 0
-246 -54 0
-246 -55 0
-246 -56 0
-246 -57 0
-246 -58 0
-246 59 0
-246 60 0
-246 -61 0
-246 -62 0
-246 -63 0
-246 -64 0
-247 -49 0
-247 -50 0
-247 -51 0
-247 -52 0
-247 53 0
-247 54 0
-247 -55 0
-247 -56 0
-247 -57 0
-247 -58 0
-247 -59 0
-247 -60 0
-247 61 0
-247 62 0
-247 -63 0
-247 -64 0
-248 49 0
-248 50 0
-248 -51 0
-248 -52 0
-248 -53 0
-248 -54 0
-248 -55 0
-248 -56 0
-248 57 0
-248 58 0
-248 -59 0
-248 -60 0
-248 -61 0
-248 -62 0
-248 -63 0
-248 -64 0
-249 -49 0
-249 -50 0
-249 -51 0
-249 -52 0
-249 -53 0
-249 -54 0
-249 -55 0
-249 -56 0
-249 -57 0
-249 -58 0
-249 59 0
-249 60 0
-249 -61 0
-249 -62 0
-249 63 0
-249 64 0
-250 -49 0
-250 -50 0
-250 51 0
-250 52 0
-250 -53 0
-250 -54 0
-250 55 0
-250 56 0
-250 -57 0
-250 -58 0
-250 -59 0
-250 -60 0
-250 -61 0
-250 -62 0
-250 -63 0
-250 -64 0
-251 -49 0
-251 -50 0
-251 -51 0
-251 -52 0
-251 -53 0
-251 -54 0
-251 -55 0
-251 -56 0
-251 57 0
-251 58 0
-251 -59 0
-251 -60 0
-251 61 0
-251 62 0
-251 -63 0
-251 -64 0
-252 49 0
-252 50 0
-252 -51 0
-252 -52 0
-252 53 0
-252 54 0
-252 -55 0
-252 -56 0
-252 -57 0
-252 -58 0
-252 -59 0
-252 -60 0
-252 -61 0
-252 -62 0
-252 -63 0
-252 -64 0
-253 -49 0
-253 -50 0
-253 -51 3 0
-253 51 -3 0
-253 -52 4 0
-253 52 -4 0
-253 -53 0
-253 -54 0
-253 -55 7 0
-253 55 -7 0
-253 -56 8 0
-253 56 -8 0
-253 -57 0
-253 -58 0
-253 -59 11 0
-253 59 -11 0
-253 -60 12 0
-253 60 -12 0
-253 -61 0
-253 -62 0
-253 -63 15 0
-253 63 -15 0
-253 -64 16 0
-253 64 -16 0
-254 -49 0
-254 -50 0
-254 -51 -3 0
-254 51 3 0
-254 -52 -4 0
-254 52 4 0
-254 -53 0
-254 -54 0
-254 -55 -7 0
-254 55 7 0
-254 -56 -8 0
-254 56 8 0
-254 -57 0
-254 -58 0
-254 -59 -11 0
-254 59 11 0
-254 -60 -12 0
-254 60 12 0
-254 -61 0
-254 -62 0
-254 -63 -15 0
-254 63 15 0
-254 -64 -16 0
-254 64 16 0
-255 -49 1 0
-255 49 -1 0
-255 -50 2 0
-255 50 -2 0
-255 -51 0
-255 -52 0
-255 -53 5 0
-255 53 -5 0
-255 -54 6 0
-255 54 -6 0
-255 -55 0
-255 -56 0
-255 -57 9 0
-255 57 -9 0
-255 -58 10 0
-255 58 -10 0
-255 -59 0
-255 -60 0
-255 -61 13 0
-255 61 -13 0
-255 -62 14 0
-255 62 -14 0
-255 -63 0
-255 -64 0
-256 -49 -1 0
-256 49 1 0
-256 -50 -2 0
-256 50 2 0
-256 -51 0
-256 -52 0
-256 -53 -5 0
-256 53 5 0
-256 -54 -6 0
-256 54 6 0
-256 -55 0
-256 -56 0
-256 -57 -9 0
-256 57 9 0
-256 -58 -10 0
-256 58 10 0
-256 -59 0
-256 -60 0
-256 -61 -13 0
-256 61 13 0
-256 -62 -14 0
-256 62 14 0
-256 -63 0
-256 -64 0
-257 -49 0
-257 -50 0
-257 -51 19 0
-257 51 -19 0
-257 -52 20 0
-257 52 -20 0
-257 -53 0
-257 -54 0
-257 -55 23 0
-257 55 -23 0
-257 -56 24 0
-257 56 -24 0
-257 -57 0
-257 -58 0
-257 -59 27 0
-257 59 -27 0
-257 -60 28 0
-257 60 -28 0
-257 -61 0
-257 -62 0
-257 -63 31 0
-257 63 -31 0
-257 -64 32 0
-257 64 -32 0
-258 -49 0
-258 -50 0
-258 -51 -19 0
-258 51 19 0
-258 -52 -20 0
-258 52 20 0
-258 -53 0
-258 -54 0
-258 -55 -23 0
-258 55 23 0
-258 -56 -24 0
-258 56 24 0
-258 -57 0
-258 -58 0
-258 -59 -27 0
-258 59 27 0
-258 -60 -28 0
-258 60 28 0
-258 -61 0
-258 -62 0
-258 -63 -31 0
-258 63 31 0
-258 -64 -32 0
-258 64 32 0
-259 -49 17 0
-259 49 -17 0
-259 -50 18 0
-259 50 -18 0
-259 -51 0
-259 -52 0
-259 -53 21 0
-259 53 -21 0
-259 -54 22 0
-259 54 -22 0
-259 -55 0
-259 -56 0
-259 -57 25 0
-259 57 -25 0
-259 -58 26 0
-259 58 -26 0
-259 -59 0
-259 -60 0
-259 -61 29 0
-259 61 -29 0
-259 -62 30 0
-259 62 -30 0
-259 -63 0
-259 -64 0
-260 -49 -17 0
-260 49 17 0
-260 -50 -18 0
-260 50 18 0
-260 -51 0
-260 -52 0
-260 -53 -21 0
-260 53 21 0
-260 -54 -22 0
-260 54 22 0
-260 -55 0
-260 -56 0
-260 -57 -25 0
-260 57 25 0
-260 -58 -26 0
-260 58 26 0
-260 -59 0
-260 -60 0
-260 -61 -29 0
-260 61 29 0
-260 -62 -30 0
-260 62 30 0
-260 -63 0
-260 -64 0
-261 -49 0
-261 -50 0
-261 -51 35 0
-261 51 -35 0
-261 -52 36 0
-261 52 -36 0
-261 -53 0
-261 -54 0
-261 -55 39 0
-261 55 -39 0
-261 -56 40 0
-261 56 -40 0
-261 -57 0
-261 -58 0
-261 -59 43 0
-261 59 -43 0
-261 -60 44 0
-261 60 -44 0
-261 -61 0
-261 -62 0
-261 -63 47 0
-261 63 -47 0
-261 -64 48 0
-261 64 -48 0
-262 -49 0
-262 -50 0
-262 -51 -35 0
-262 51 35 0
-262 -52 -36 0
-262 52 36 0
-262 -53 0
-262 -54 0
-262 -55 -39 0
-262 55 39 0
-262 -56 -40 0
-262 56 40 0
-262 -57 0
-262 -58 0
-262 -59 -43 0
-262 59 43 0
-262 -60 -44 0
-262 60 44 0
-262 -61 0
-262 -62 0
-262 -63 -47 0
-262 63 47 0
-262 -64 -48 0
-262 64 48 0
-263 -49 33 0
-263 49 -33 0
-263 -50 34 0
-263 50 -34 0
-263 -51 0
-263 -52 0
-263 -53 37 0
-263 53 -37 0
-263 -54 38 0
-263 54 -38 0
-263 -55 0
-263 -56 0
-263 -57 41 0
-263 57 -41 0
-263 -58 42 0
-263 58 -42 0
-263 -59 0
-263 -60 0
-263 -61 45 0
-263 61 -45 0
-263 -62 46 0
-263 62 -46 0
-263 -63 0
-263 -64 0
-264 -49 -33 0
-264 49 33 0
-264 -50 -34 0
-264 50 34 0
-264 -51 0
-264 -52 0
-264 -53 -37 0
-264 53 37 0
-264 -54 -38 0
-264 54 38 0
-264 -55 0
-264 -56 0
-264 -57 -41 0
-264 57 41 0
-264 -58 -42 0
-264 58 42 0
-264 -59 0
-264 -60 0
-264 -61 -45 0
-264 61 45 0
-264 -62 -46 0
-264 62 46 0
-264 -63 0
-264 -64 0
-265 -49 0
-265 -50 0
-265 -51 0
-265 -52 0
-265 -53 0
-265 -54 0
-265 -55 0
-265 -56 0
-265 -57 0
-265 -58 0
-265 -59 0
-265 -60 0
-265 61 0
-265 62 0
-265 63 0
-265 64 0
-266 -49 0
-266 -50 0
-266 -51 0
-266 -52 0
-266 53 0
-266 54 0
-266 55 0
-266 56 0
-266 -57 0
-266 -58 0
-266 -59 0
-266 -60 0
-266 -61 0
-266 -62 0
-266 -63 0
-266 -64 0
-267 -49 0
-267 -50 0
-267 -51 0
-267 -52 0
-267 -53 0
-267 -54 0
-267 -55 0
-267 -56 0
-267 57 0
-267 58 0
-267 59 0
-267 60 0
-267 -61 0
-267 -62 0
-267 -63 0
-267 -64 0
-268 49 0
-268 50 0
-268 51 0
-268 52 0
-268 -53 0
-268 -54 0
-268 -55 0
-268 -56 0
-268 -57 0
-268 -58 0
-268 -59 0
-268 -60 0
-268 -61 0
-268 -62 0
-268 -63 0
-268 -64 0
-269 -49 0
-269 -50 0
-269 -51 0
-269 -52 0
-269 -53 5 0
-269 53 -5 0
-269 -54 6 0
-269 54 -6 0
-269 -55 7 0
-269 55 -7 0
-269 -56 8 0
-269 56 -8 0
-269 -57 0
-269 -58 0
-269 -59 0
-269 -60 0
-269 -61 13 0
-269 61 -13 0
-269 -62 14 0
-269 62 -14 0
-269 -63 15 0
-269 63 -15 0
-269 -64 16 0
-269 64 -16 0
-270 -49 0
-270 -50 0
-270 -51 0
-270 -52 0
-270 -53 -5 0
-270 53 5 0
-270 -54 -6 0
-270 54 6 0
-270 -55 -7 0
-270 55 7 0
-270 -56 -8 0
-270 56 8 0
-270 -57 0
-270 -58 0
-270 -59 0
-270 -60 0
-270 -61 -13 0
-270 61 13 0
-270 -62 -14 0
-270 62 14 0
-270 -63 -15 0
-270 63 15 0
-270 -64 -16 0
-270 64 16 0
-271 -49 1 0
-271 49 -1 0
-271 -50 2 0
-271 50 -2 0
-271 -51 3 0
-271 51 -3 0
-271 -52 4 0
-271 52 -4 0
-271 -53 0
-271 -54 0
-271 -55 0
-271 -56 0
-271 -57 9 0
-271 57 -9 0
-271 -58 10 0
-271 58 -10 0
-271 -59 11 0
-271 59 -11 0
-271 -60 12 0
-271 60 -12 0
-271 -61 0
-271 -62 0
-271 -63 0
-271 -64 0
-272 -49 -1 0
-272 49 1 0
-272 -50 -2 0
-272 50 2 0
-272 -51 -3 0
-272 51 3 0
-272 -52 -4 0
-272 52 4 0
-272 -53 0
-272 -54 0
-272 -55 0
-272 -56 0
-272 -57 -9 0
-272 57 9 0
-272 -58 -10 0
-272 58 10 0
-272 -59 -11 0
-272 59 11 0
-272 -60 -12 0
-272 60 12 0
-272 -61 0
-272 -62 0
-272 -63 0
-272 -64 0
-273 -49 0
-273 -50 0
-273 -51 0
-273 -52 0
-273 -53 21 0
-273 53 -21 0
-273 -54 22 0
-273 54 -22 0
-273 -55 23 0
-273 55 -23 0
-273 -56 24 0
-273 56 -24 0
-273 -57 0
-273 -58 0
-273 -59 0
-273 -60 0
-273 -61 29 0
-273 61 -29 0
-273 -62 30 0
-273 62 -30 0
-273 -63 31 0
-273 63 -31 0
-273 -64 32 0
-273 64 -32 0
-274 -49 0
-274 -50 0
-274 -51 0
-274 -52 0
-274 -53 -21 0
-274 53 21 0
-274 -54 -22 0
-274 54 22 0
-274 -55 -23 0
-274 55 23 0
-274 -56 -24 0
-274 56 24 0
-274 -57 0
-274 -58 0
-274 -59 0
-274 -60 0
-274 -61 -29 0
-274 61 29 0
-274 -62 -30 0
-274 62 30 0
-274 -63 -31 0
-274 63 31 0
-274 -64 -32 0
-274 64 32 0
-275 -49 17 0
-275 49 -17 0
-275 -50 18 0
-275 50 -18 0
-275 -51 19 0
-275 51 -19 0
-275 -52 20 0
-275 52 -20 0
-275 -53 0
-275 -54 0
-275 -55 0
-275 -56 0
-275 -57 25 0
-275 57 -25 0
-275 -58 26 0
-275 58 -26 0
-275 -59 27 0
-275 59 -27 0
-275 -60 28 0
-275 60 -28 0
-275 -61 0
-275 -62 0
-275 -63 0
-275 -64 0
-276 -49 -17 0
-276 49 17 0
-276 -50 -18 0
-276 50 18 0
-276 -51 -19 0
-276 51 19 0
-276 -52 -20 0
-276 52 20 0
-276 -53 0
-276 -54 0
-276 -55 0
-276 -56 0
-276 -57 -25 0
-276 57 25 0
-276 -58 -26 0
-276 58 26 0
-276 -59 -27 0
-276 59 27 0
-276 -60 -28 0
-276 60 28 0
-276 -61 0
-276 -62 0
-276 -63 0
-276 -64 0
-277 -49 0
-277 -50 0
-277 -51 0
-277 -52 0
-277 -53 37 0
-277 53 -37 0
-277 -54 38 0
-277 54 -38 0
-277 -55 39 0
-277 55 -39 0
-277 -56 40 0
-277 56 -40 0
-277 -57 0
-277 -58 0
-277 -59 0
-277 -60 0
-277 -61 45 0
-277 61 -45 0
-277 -62 46 0
-277 62 -46 0
-277 -63 47 0
-277 63 -47 0
-277 -64 48 0
-277 64 -48 0
-278 -49 0
-278 -50 0
-278 -51 0
-278 -52 0
-278 -53 -37 0
-278 53 37 0
-278 -54 -38 0
-278 54 38 0
-278 -55 -39 0
-278 55 39 0
-278 -56 -40 0
-278 56 40 0
-278 -57 0
-278 -58 0
-278 -59 0
-278 -60 0
-278 -61 -45 0
-278 61 45 0
-278 -62 -46 0
-278 62 46 0
-278 -63 -47 0
-278 63 47 0
-278 -64 -48 0
-278 64 48 0
-279 -49 33 0
-279 49 -33 0
-279 -50 34 0
-279 50 -34 0
-279 -51 35 0
-279 51 -35 0
-279 -52 36 0
-279 52 -36 0
-279 -53 0
-279 -54 0
-279 -55 0
-279 -56 0
-279 -57 41 0
-279 57 -41 0
-279 -58 42 0
-279 58 -42 0
-279 -59 43 0
-279 59 -43 0
-279 -60 44 0
-279 60 -44 0
-279 -61 0
-279 -62 0
-279 -63 0
-279 -64 0
-280 -49 -33 0
-280 49 33 0
-280 -50 -34 0
-280 50 34 0
-280 -51 -35 0
-280 51 35 0
-280 -52 -36 0
-280 52 36 0
-280 -53 0
-280 -54 0
-280 -55 0
-280 -56 0
-280 -57 -41 0
-280 57 41 0
-280 -58 -42 0
-280 58 42 0
-280 -59 -43 0
-280 59 43 0
-280 -60 -44 0
-280 60 44 0
-280 -61 0
-280 -62 0
-280 -63 0
-280 -64 0
-281 -49 0
-281 -50 0
-281 -51 0
-281 -52 0
-281 -53 0
-281 -54 0
-281 -55 0
-281 -56 0
-281 -57 9 0
-281 57 -9 0
-281 -58 10 0
-281 58 -10 0
-281 -59 11 0
-281 59 -11 0
-281 -60 12 0
-281 60 -12 0
-281 -61 13 0
-281 61 -13 0
-281 -62 14 0
-281 62 -14 0
-281 -63 15 0
-281 63 -15 0
-281 -64 16 0
-281 64 -16 0
-282 -49 0
-282 -50 0
-282 -51 0
-282 -52 0
-282 -53 0
-282 -54 0
-282 -55 0
-282 -56 0
-282 -57 -9 0
-282 57 9 0
-282 -58 -10 0
-282 58 10 0
-282 -59 -11 0
-282 59 11 0
-282 -60 -12 0
-282 60 12 0
-282 -61 -13 0
-282 61 13 0
-282 -62 -14 0
-282 62 14 0
-282 -63 -15 0
-282 63 15 0
-282 -64 -16 0
-282 64 16 0
-283 -49 1 0
-283 49 -1 0
-283 -50 2 0
-283 50 -2 0
-283 -51 3 0
-283 51 -3 0
-283 -52 4 0
-283 52 -4 0
-283 -53 5 0
-283 53 -5 0
-283 -54 6 0
-283 54 -6 0
-283 -55 7 0
-283 55 -7 0
-283 -56 8 0
-283 56 -8 0
-283 -57 0
-283 -58 0
-283 -59 0
-283 -60 0
-283 -61 0
-283 -62 0
-283 -63 0
-283 -64 0
-284 -49 -1 0
-284 49 1 0
-284 -50 -2 0
-284 50 2 0
-284 -51 -3 0
-284 51 3 0
-284 -52 -4 0
-284 52 4 0
-284 -53 -5 0
-284 53 5 0
-284 -54 -6 0
-284 54 6 0
-284 -55 -7 0
-284 55 7 0
-284 -56 -8 0
-284 56 8 0
-284 -57 0
-284 -58 0
-284 -59 0
-284 -60 0
-284 -61 0
-284 -62 0
-284 -63 0
-284 -64 0
-285 -49 0
-285 -50 0
-285 -51 0
-285 -52 0
-285 -53 0
-285 -54 0
-285 -55 0
-285 -56 0
-285 -57 25 0
-285 57 -25 0
-285 -58 26 0
-285 58 -26 0
-285 -59 27 0
-285 59 -27 0
-285 -60 28 0
-285 60 -28 0
-285 -61 29 0
-285 61 -29 0
-285 -62 30 0
-285 62 -30 0
-285 -63 31 0
-285 63 -31 0
-285 -64 32 0
-285 64 -32 0
-286 -49 0
-286 -50 0
-286 -51 0
-286 -52 0
-286 -53 0
-286 -54 0
-286 -55 0
-286 -56 0
-286 -57 -25 0
-286 57 25 0
-286 -58 -26 0
-286 58 26 0
-286 -59 -27 0
-286 59 27 0
-286 -60 -28 0
-286 60 28 0
-286 -61 -29 0
-286 61 29 0
-286 -62 -30 0
-286 62 30 0
-286 -63 -31 0
-286 63 31 0
-286 -64 -32 0
-286 64 32 0
-287 -49 17 0
-287 49 -17 0
-287 -50 18 0
-287 50 -18 0
-287 -51 19 0
-287 51 -19 0
-287 -52 20 0
-287 52 -20 0
-287 -53 21 0
-287 53 -21 0
-287 -54 22 0
-287 54 -22 0
-287 -55 23 0
-287 55 -23 0
-287 -56 24 0
-287 56 -24 0
-287 -57 0
-287 -58 0
-287 -59 0
-287 -60 0
-287 -61 0
-287 -62 0
-287 -63 0
-287 -64 0
-288 -49 -17 0
-288 49 17 0
-288 -50 -18 0
-288 50 18 0
-288 -51 -19 0
-288 51 19 0
-288 -52 -20 0
-288 52 20 0
-288 -53 -21 0
-288 53 21 0
-288 -54 -22 0
-288 54 22 0
-288 -55 -23 0
-288 55 23 0
-288 -56 -24 0
-288 56 24 0
-288 -57 0
-288 -58 0
-288 -59 0
-288 -60 0
-288 -61 0
-288 -62 0
-288 -63 0
-288 -64 0
-289 -49 0
-289 -50 0
-289 -51 0
-289 -52 0
-289 -53 0
-289 -54 0
-289 -55 0
-289 -56 0
-289 -57 41 0
-289 57 -41 0
-289 -58 42 0
-289 58 -42 0
-289 -59 43 0
-289 59 -43 0
-289 -60 44 0
-289 60 -44 0
-289 -61 45 0
-289 61 -45 0
-289 -62 46 0
-289 62 -46 0
-289 -63 47 0
-289 63 -47 0
-289 -64 48 0
-289 64 -48 0
-290 -49 0
-290 -50 0
-290 -51 0
-290 -52 0
-290 -53 0
-290 -54 0
-290 -55 0
-290 -56 0
-290 -57 -41 0
-290 57 41 0
-290 -58 -42 0
-290 58 42 0
-290 -59 -43 0
-290 59 43 0
-290 -60 -44 0
-290 60 44 0
-290 -61 -45 0
-290 61 45 0
-290 -62 -46 0
-290 62 46 0
-290 -63 -47 0
-290 63 47 0
-290 -64 -48 0
-290 64 48 0
-291 -49 33 0
-291 49 -33 0
-291 -50 34 0
-291 50 -34 0
-291 -51 35 0
-291 51 -35 0
-291 -52 36 0
-291 52 -36 0
-291 -53 37 0
-291 53 -37 0
-291 -54 38 0
-291 54 -38 0
-291 -55 39 0
-291 55 -39 0
-291 -56 40 0
-291 56 -40 0
-291 -57 0
-291 -58 0
-291 -59 0
-291 -60 0
-291 -61 0
-291 -62 0
-291 -63 0
-291 -64 0
-292 -49 -33 0
-292 49 33 0
-292 -50 -34 0
-292 50 34 0
-292 -51 -35 0
-292 51 35 0
-292 -52 -36 0
-292 52 36 0
-292 -53 -37 0
-292 53 37 0
-292 -54 -38 0
-292 54 38 0
-292 -55 -39 0
-292 55 39 0
-292 -56 -40 0
-292 56 40 0
-292 -57 0
-292 -58 0
-292 -59 0
-292 -60 0
-292 -61 0
-292 -62 0
-292 -63 0
-292 -64 0
-293 -49 1 0
-293 -49 17 0
-293 49 -1 -17 0
-293 -50 2 0
-293 -50 18 0
-293 50 -2 -18 0
-293 -51 3 0
-293 -51 19 0
-293 51 -3 -19 0
-293 -52 4 0
-293 -52 20 0
-293 52 -4 -20 0
-293 -53 5 0
-293 -53 21 0
-293 53 -5 -21 0
-293 -54 6 0
-293 -54 22 0
-293 54 -6 -22 0
-293 -55 7 0
-293 -55 23 0
-293 55 -7 -23 0
-293 -56 8 0
-293 -56 24 0
-293 56 -8 -24 0
-293 -57 9 0
-293 -57 25 0
-293 57 -9 -25 0
-293 -58 10 0
-293 -58 26 0
-293 58 -10 -26 0
-293 -59 11 0
-293 -59 27 0
-293 59 -11 -27 0
-293 -60 12 0
-293 -60 28 0
-293 60 -12 -28 0
-293 -61 13 0
-293 -61 29 0
-293 61 -13 -29 0
-293 -62 14 0
-293 -62 30 0
-293 62 -14 -30 0
-293 -63 15 0
-293 -63 31 0
-293 63 -15 -31 0
-293 -64 16 0
-293 -64 32 0
-293 64 -16 -32 0
-294 -49 1 0
-294 -49 -17 0
-294 49 -1 17 0
-294 -50 2 0
-294 -50 -18 0
-294 50 -2 18 0
-294 -51 3 0
-294 -51 -19 0
-294 51 -3 19 0
-294 -52 4 0
-294 -52 -20 0
-294 52 -4 20 0
-294 -53 5 0
-294 -53 -21 0
-294 53 -5 21 0
-294 -54 6 0
-294 -54 -22 0
-294 54 -6 22 0
-294 -55 7 0
-294 -55 -23 0
-294 55 -7 23 0
-294 -56 8 0
-294 -56 -24 0
-294 56 -8 24 0
-294 -57 9 0
-294 -57 -25 0
-294 57 -9 25 0
-294 -58 10 0
-294 -58 -26 0
-294 58 -10 26 0
-294 -59 11 0
-294 -59 -27 0
-294 59 -11 27 0
-294 -60 12 0
-294 -60 -28 0
-294 60 -12 28 0
-294 -61 13 0
-294 -61 -29 0
-294 61 -13 29 0
-294 -62 14 0
-294 -62 -30 0
-294 62 -14 30 0
-294 -63 15 0
-294 -63 -31 0
-294 63 -15 31 0
-294 -64 16 0
-294 -64 -32 0
-294 64 -16 32 0
-295 -49 -1 0
-295 -49 17 0
-295 49 1 -17 0
-295 -50 -2 0
-295 -50 18 0
-295 50 2 -18 0
-295 -51 -3 0
-295 -51 19 0
-295 51 3 -19 0
-295 -52 -4 0
-295 -52 20 0
-295 52 4 -20 0
-295 -53 -5 0
-295 -53 21 0
-295 53 5 -21 0
-295 -54 -6 0
-295 -54 22 0
-295 54 6 -22 0
-295 -55 -7 0
-295 -55 23 0
-295 55 7 -23 0
-295 -56 -8 0
-295 -56 24 0
-295 56 8 -24 0
-295 -57 -9 0
-295 -57 25 0
-295 57 9 -25 0
-295 -58 -10 0
-295 -58 26 0
-295 58 10 -26 0
-295 -59 -11 0
-295 -59 27 0
-295 59 11 -27 0
-295 -60 -12 0
-295 -60 28 0
-295 60 12 -28 0
-295 -61 -13 0
-295 -61 29 0
-295 61 13 -29 0
-295 -62 -14 0
-295 -62 30 0
-295 62 14 -30 0
-295 -63 -15 0
-295 -63 31 0
-295 63 15 -31 0
-295 -64 -16 0
-295 -64 32 0
-295 64 16 -32 0
-296 -49 -1 0
-296 -49 -17 0
-296 49 1 17 0
-296 -50 -2 0
-296 -50 -18 0
-296 50 2 18 0
-296 -51 -3 0
-296 -51 -19 0
-296 51 3 19 0
-296 -52 -4 0
-296 -52 -20 0
-296 52 4 20 0
-296 -53 -5 0
-296 -53 -21 0
-296 53 5 21 0
-296 -54 -6 0
-296 -54 -22 0
-296 54 6 22 0
-296 -55 -7 0
-296 -55 -23 0
-296 55 7 23 0
-296 -56 -8 0
-296 -56 -24 0
-296 56 8 24 0
-296 -57 -9 0
-296 -57 -25 0
-296 57 9 25 0
-296 -58 -10 0
-296 -58 -26 0
-296 58 10 26 0
-296 -59 -11 0
-296 -59 -27 0
-296 59 11 27 0
-296 -60 -12 0
-296 -60 -28 0
-296 60 12 28 0
-296 -61 -13 0
-296 -61 -29 0
-296 61 13 29 0
-296 -62 -14 0
-296 -62 -30 0
-296 62 14 30 0
-296 -63 -15 0
-296 -63 -31 0
-296 63 15 31 0
-296 -64 -16 0
-296 -64 -32 0
-296 64 16 32 0
-297 -49 1 0
-297 -49 33 0
-297 49 -1 -33 0
-297 -50 2 0
-297 -50 34 0
-297 50 -2 -34 0
-297 -51 3 0
-297 -51 35 0
-297 51 -3 -35 0
-297 -52 4 0
-297 -52 36 0
-297 52 -4 -36 0
-297 -53 5 0
-297 -53 37 0
-297 53 -5 -37 0
-297 -54 6 0
-297 -54 38 0
-297 54 -6 -38 0
-297 -55 7 0
-297 -55 39 0
-297 55 -7 -39 0
-297 -56 8 0
-297 -56 40 0
-297 56 -8 -40 0
-297 -57 9 0
-297 -57 41 0
-297 57 -9 -41 0
-297 -58 10 0
-297 -58 42 0
-297 58 -10 -42 0
-297 -59 11 0
-297 -59 43 0
-297 59 -11 -43 0
-297 -60 12 0
-297 -60 44 0
-297 60 -12 -44 0
-297 -61 13 0
-297 -61 45 0
-297 61 -13 -45 0
-297 -62 14 0
-297 -62 46 0
-297 62 -14 -46 0
-297 -63 15 0
-297 -63 47 0
-297 63 -15 -47 0
-297 -64 16 0
-297 -64 48 0
-297 64 -16 -48 0
-298 -49 1 0
-298 -49 -33 0
-298 49 -1 33 0
-298 -50 2 0
-298 -50 -34 0
-298 50 -2 34 0
-298 -51 3 0
-298 -51 -35 0
-298 51 -3 35 0
-298 -52 4 0
-298 -52 -36 0
-298 52 -4 36 0
-298 -53 5 0
-298 -53 -37 0
-298 53 -5 37 0
-298 -54 6 0
-298 -54 -38 0
-298 54 -6 38 0
-298 -55 7 0
-298 -55 -39 0
-298 55 -7 39 0
-298 -56 8 0
-298 -56 -40 0
-298 56 -8 40 0
-298 -57 9 0
-298 -57 -41 0
-298 57 -9 41 0
-298 -58 10 0
-298 -58 -42 0
-298 58 -10 42 0
-298 -59 11 0
-298 -59 -43 0
-298 59 -11 43 0
-298 -60 12 0
-298 -60 -44 0
-298 60 -12 44 0
-298 -61 13 0
-298 -61 -45 0
-298 61 -13 45 0
-298 -62 14 0
-298 -62 -46 0
-298 62 -14 46 0
-298 -63 15 0
-298 -63 -47 0
-298 63 -15 47 0
-298 -64 16 0
-298 -64 -48 0
-298 64 -16 48 0
-299 -49 -1 0
-299 -49 33 0
-299 49 1 -33 0
-299 -50 -2 0
-299 -50 34 0
-299 50 2 -34 0
-299 -51 -3 0
-299 -51 35 0
-299 51 3 -35 0
-299 -52 -4 0
-299 -52 36 0
-299 52 4 -36 0
-299 -53 -5 0
-299 -53 37 0
-299 53 5 -37 0
-299 -54 -6 0
-299 -54 38 0
-299 54 6 -38 0
-299 -55 -7 0
-299 -55 39 0
-299 55 7 -39 0
-299 -56 -8 0
-299 -56 40 0
-299 56 8 -40 0
-299 -57 -9 0
-299 -57 41 0
-299 57 9 -41 0
-299 -58 -10 0
-299 -58 42 0
-299 58 10 -42 0
-299 -59 -11 0
-299 -59 43 0
-299 59 11 -43 0
-299 -60 -12 0
-299 -60 44 0
-299 60 12 -44 0
-299 -61 -13 0
-299 -61 45 0
-299 61 13 -45 0
-299 -62 -14 0
-299 -62 46 0
-299 62 14 -46 0
-299 -63 -15 0
-299 -63 47 0
-299 63 15 -47 0
-299 -64 -16 0
-299 -64 48 0
-299 64 16 -48 0
-300 -49 -1 0
-300 -49 -33 0
-300 49 1 33 0
-300 -50 -2 0
-300 -50 -34 0
-300 50 2 34 0
-300 -51 -3 0
-300 -51 -35 0
-300 51 3 35 0
-300 -52 -4 0
-300 -52 -36 0
-300 52 4 36 0
-300 -53 -5 0
-300 -53 -37 0
-300 53 5 37 0
-300 -54 -6 0
-300 -54 -38 0
-300 54 6 38 0
-300 -55 -7 0
-300 -55 -39 0
-300 55 7 39 0
-300 -56 -8 0
-300 -56 -40 0
-300 56 8 40 0
-300 -57 -9 0
-300 -57 -41 0
-300 57 9 41 0
-300 -58 -10 0
-300 -58 -42 0
-300 58 10 42 0
-300 -59 -11 0
-300 -59 -43 0
-300 59 11 43 0
-300 -60 -12 0
-300 -60 -44 0
-300 60 12 44 0
-300 -61 -13 0
-300 -61 -45 0
-300 61 13 45 0
-300 -62 -14 0
-300 -62 -46 0
-300 62 14 46 0
-300 -63 -15 0
-300 -63 -47 0
-300 63 15 47 0
-300 -64 -16 0
-300 -64 -48 0
-300 64 16 48 0
-301 -49 17 0
-301 -49 33 0
-301 49 -17 -33 0
-301 -50 18 0
-301 -50 34 0
-301 50 -18 -34 0
-301 -51 19 0
-301 -51 35 0
-301 51 -19 -35 0
-301 -52 20 0
-301 -52 36 0
-301 52 -20 -36 0
-301 -53 21 0
-301 -53 37 0
-301 53 -21 -37 0
-301 -54 22 0
-301 -54 38 0
-301 54 -22 -38 0
-301 -55 23 0
-301 -55 39 0
-301 55 -23 -39 0
-301 -56 24 0
-301 -56 40 0
-301 56 -24 -40 0
-301 -57 25 0
-301 -57 41 0
-301 57 -25 -41 0
-301 -58 26 0
-301 -58 42 0
-301 58 -26 -42 0
-301 -59 27 0
-301 -59 43 0
-301 59 -27 -43 0
-301 -60 28 0
-301 -60 44 0
-301 60 -28 -44 0
-301 -61 29 0
-301 -61 45 0
-301 61 -29 -45 0
-301 -62 30 0
-301 -62 46 0
-301 62 -30 -46 0
-301 -63 31 0
-301 -63 47 0
-301 63 -31 -47 0
-301 -64 32 0
-301 -64 48 0
-301 64 -32 -48 0
-302 -49 17 0
-302 -49 -33 0
-302 49 -17 33 0
-302 -50 18 0
-302 -50 -34 0
-302 50 -18 34 0
-302 -51 19 0
-302 -51 -35 0
-302 51 -19 35 0
-302 -52 20 0
-302 -52 -36 0
-302 52 -20 36 0
-302 -53 21 0
-302 -53 -37 0
-302 53 -21 37 0
-302 -54 22 0
-302 -54 -38 0
-302 54 -22 38 0
-302 -55 23 0
-302 -55 -39 0
-302 55 -23 39 0
-302 -56 24 0
-302 -56 -40 0
-302 56 -24 40 0
-302 -57 25 0
-302 -57 -41 0
-302 57 -25 41 0
-302 -58 26 0
-302 -58 -42 0
-302 58 -26 42 0
-302 -59 27 0
-302 -59 -43 0
-302 59 -27 43 0
-302 -60 28 0
-302 -60 -44 0
-302 60 -28 44 0
-302 -61 29 0
-302 -61 -45 0
-302 61 -29 45 0
-302 -62 30 0
-302 -62 -46 0
-302 62 -30 46 0
-302 -63 31 0
-302 -63 -47 0
-302 63 -31 47 0
-302 -64 32 0
-302 -64 -48 0
-302 64 -32 48 0
-303 -49 -17 0
-303 -49 33 0
-303 49 17 -33 0
-303 -50 -18 0
-303 -50 34 0
-303 50 18 -34 0
-303 -51 -19 0
-303 -51 35 0
-303 51 19 -35 0
-303 -52 -20 0
-303 -52 36 0
-303 52 20 -36 0
-303 -53 -21 0
-303 -53 37 0
-303 53 21 -37 0
-303 -54 -22 0
-303 -54 38 0
-303 54 22 -38 0
-303 -55 -23 0
-303 -55 39 0
-303 55 23 -39 0
-303 -56 -24 0
-303 -56 40 0
-303 56 24 -40 0
-303 -57 -25 0
-303 -57 41 0
-303 57 25 -41 0
-303 -58 -26 0
-303 -58 42 0
-303 58 26 -42 0
-303 -59 -27 0
-303 -59 43 0
-303 59 27 -43 0
-303 -60 -28 0
-303 -60 44 0
-303 60 28 -44 0
-303 -61 -29 0
-303 -61 45 0
-303 61 29 -45 0
-303 -62 -30 0
-303 -62 46 0
-303 62 30 -46 0
-303 -63 -31 0
-303 -63 47 0
-303 63 31 -47 0
-303 -64 -32 0
-303 -64 48 0
-303 64 32 -48 0
-304 -49 -17 0
-304 -49 -33 0
-304 49 17 33 0
-304 -50 -18 0
-304 -50 -34 0
-304 50 18 34 0
-304 -51 -19 0
-304 -51 -35 0
-304 51 19 35 0
-304 -52 -20 0
-304 -52 -36 0
-304 52 20 36 0
-304 -53 -21 0
-304 -53 -37 0
-304 53 21 37 0
-304 -54 -22 0
-304 -54 -38 0
-304 54 22 38 0
-304 -55 -23 0
-304 -55 -39 0
-304 55 23 39 0
-304 -56 -24 0
-304 -56 -40 0
-304 56 24 40 0
-304 -57 -25 0
-304 -57 -41 0
-304 57 25 41 0
-304 -58 -26 0
-304 -58 -42 0
-304 58 26 42 0
-304 -59 -27 0
-304 -59 -43 0
-304 59 27 43 0
-304 -60 -28 0
-304 -60 -44 0
-304 60 28 44 0
-304 -61 -29 0
-304 -61 -45 0
-304 61 29 45 0
-304 -62 -30 0
-304 -62 -46 0
-304 62 30 46 0
-304 -63 -31 0
-304 -63 -47 0
-304 63 31 47 0
-304 -64 -32 0
-304 -64 -48 0
-304 64 32 48 0
305 306 307 308 309 310 311 312 313 314 315 316 317 318 319 320 321 322 323 324 325 326 327 328 329 330 331 332 333 334 335 336 337 338 339 340 341 342 343 344 345 346 347 348 349 350 351 352 353 354 355 356 357 358 359 360 361 362 363 364 365 366 367 368 369 370 371 372 373 374 375 376 377 378 379 380 381 382 383 384 385 386 387 388 389 390 391 392 393 394 395 396 397 398 399 400 401 402 403 404 405 406 407 408 409 410 411 412 413 414 415 416 0
-305 -306 0
-305 -307 0
-305 -308 0
-305 -309 0
-305 -310 0
-305 -311 0
-305 -312 0
-305 -313 0
-305 -314 0
-305 -315 0
-305 -316 0
-305 -317 0
-305 -318 0
-305 -319 0
-305 -320 0
-305 -321 0
-305 -322 0
-305 -323 0
-305 -324 0
-305 -325 0
-305 -326 0
-305 -327 0
-305 -328 0
-305 -329 0
-305 -330 0
-305 -331 0
-305 -332 0
-305 -333 0
-305 -334 0
-305 -335 0
-305 -336 0
-305 -337 0
-305 -338 0
-305 -339 0
-305 -340 0
-305 -341 0
-305 -342 0
-305 -343 0
-305 -344 0
-305 -345 0
-305 -346 0
-305 -347 0
-305 -348 0
-305 -349 0
-305 -350 0
-305 -351 0
-305 -352 0
-305 -353 0
-305 -354 0
-305 -355 0
-305 -356 0
-305 -357 0
-305 -358 0
-305 -359 0
-305 -360 0
-305 -361 0
-305 -362 0
-305 -363 0
-305 -364 0
-305 -365 0
-305 -366 0
-305 -367 0
-305 -368 0
-305 -369 0
-305 -370 0
-305 -371 0
-305 -372 0
-305 -373 0
-305 -374 0
-305 -375 0
-305 -376 0
-305 -377 0
-305 -378 0
-305 -379 0
-305 -380 0
-305 -381 0
-305 -382 0
-305 -383 0
-305 -384 0
-305 -385 0
-305 -386 0
-305 -387 0
-305 -388 0
-305 -389 0
-305 -390 0
-305 -391 0
-305 -392 0
-305 -393 0
-305 -394 0
-305 -395 0
-305 -396 0
-305 -397 0
-305 -398 0
-305 -399 0
-305 -400 0
-305 -401 0
-305 -402 0
-305 -403 0
-305 -404 0
-305 -405 0
-305 -406 0
-305 -407 0
-305 -408 0
-305 -409 0
-305 -410 0
-305 -411 0
-305 -412 0
-305 -413 0
-305 -414 0
-305 -415 0
-305 -416 0
-306 -307 0
-306 -308 0
-306 -309 0
-306 -310 0
-306 -311 0
-306 -312 0
-306 -313 0
-306 -314 0
-306 -315 0
-306 -316 0
-306 -317 0
-306 -318 0
-306 -319 0
-306 -320 0
-306 -321 0
-306 -322 0
-306 -323 0
-306 -324 0
-306 -325 0
-306 -326 0
-306 -327 0
-306 -328 0
-306 -329 0
-306 -330 0
-306 -331 0
-306 -332 0
-306 -333 0
-306 -334 0
-306 -335 0
-306 -336 0
-306 -337 0
-306 -338 0
-306 -339 0
-306 -340 0
-306 -341 0
-306 -342 0
-306 -343 0
-306 -344 0
-306 -345 0
-306 -346 0
-306 -347 0
-306 -348 0
-306 -349 0
-306 -350 0
-306 -351 0
-306 -352 0
-306 -353 0
-306 -354 0
-306 -355 0
-306 -356 0
-306 -357 0
-306 -358 0
-306 -359 0
-306 -360 0
-306 -361 0
-306 -362 0
-306 -363 0
-306 -364 0
-306 -365 0
-306 -366 0
-306 -367 0
-306 -368 0
-306 -369 0
-306 -370 0
-306 -371 0
-306 -372 0
-306 -373 0
-306 -374 0
-306 -375 0
-306 -376 0
-306 -377 0
-306 -378 0
-306 -379 0
-306 -380 0
-306 -381 0
-306 -382 0
-306 -383 0
-306 -384 0
-306 -385 0
-306 -386 0
-306 -387 0
-306 -388 0
-306 -389 0
-306 -390 0
-306 -391 0
-306 -392 0
-306 -393 0
-306 -394 0
-306 -395 0
-306 -396 0
-306 -397 0
-306 -398 0
-306 -399 0
-306 -400 0
-306 -401 0
-306 -402 0
-306 -403 0
-306 -404 0
-306 -405 0
-306 -406 0
-306 -407 0
-306 -408 0
-306 -409 0
-306 -410 0
-306 -411 0
-306 -412 0
-306 -413 0
-306 -414 0
-306 -415 0
-306 -416 0
-307 -308 0
-307 -309 0
-307 -310 0
-307 -311 0
-307 -312 0
-307 -313 0
-307 -314 0
-307 -315 0
-307 -316 0
-307 -317 0
-307 -318 0
-307 -319 0
-307 -320 0
-307 -321 0
-307 -322 0
-307 -323 0
-307 -324 0
-307 -325 0
-307 -326 0
-307 -327 0
-307 -328 0
-307 -329 0
-307 -330 0
-307 -331 0
-307 -332 0
-307 -333 0
-307 -334 0
-307 -335 0
-307 -336 0
-307 -337 0
-307 -338 0
-307 -339 0
-307 -340 0
-307 -341 0
-307 -342 0
-307 -343 0
-307 -344 0
-307 -345 0
-307 -346 0
-307 -347 0
-307 -348 0
-307 -349 0
-307 -350 0
-307 -351 0
-307 -352 0
-307 -353 0
-307 -354 0
-307 -355 0
-307 -356 0
-307 -357 0
-307 -358 0
-307 -359 0
-307 -360 0
-307 -361 0
-307 -362 0
-307 -363 0
-307 -364 0
-307 -365 0
-307 -366 0
-307 -367 0
-307 -368 0
-307 -369 0
-307 -370 0
-307 -371 0
-307 -372 0
-307 -373 0
-307 -374 0
-307 -375 0
-307 -376 0
-307 -377 0
-307 -378 0
-307 -379 0
-307 -380 0
-307 -381 0
-307 -382 0
-307 -383 0
-307 -384 0
-307 -385 0
-307 -386 0
-307 -387 0
-307 -388 0
-307 -389 0
-307 -390 0
-307 -391 0
-307 -392 0
-307 -393 0
-307 -394 0
-307 -395 0
-307 -396 0
-307 -397 0
-307 -398 0
-307 -399 0
-307 -400 0
-307 -401 0
-307 -402 0
-307 -403 0
-307 -404 0
-307 -405 0
-307 -406 0
-307 -407 0
-307 -408 0
-307 -409 0
-307 -410 0
-307 -411 0
-307 -412 0
-307 -413 0
-307 -414 0
-307 -415 0
-307 -416 0
-308 -309 0
-308 -310 0
-308 -311 0
-308 -312 0
-308 -313 0
-308 -314 0
-308 -315 0
-308 -316 0
-308 -317 0
-308 -318 0
-308 -319 0
-308 -320 0
-308 -321 0
-308 -322 0
-308 -323 0
-308 -324 0
-308 -325 0
-308 -326 0
-308 -327 0
-308 -328 0
-308 -329 0
-308 -330 0
-308 -331 0
-308 -332 0
-308 -333 0
-308 -334 0
-308 -335 0
-308 -336 0
-308 -337 0
-308 -338 0
-308 -339 0
-308 -340 0
-308 -341 0
-308 -342 0
-308 -343 0
-308 -344 0
-308 -345 0
-308 -346 0
-308 -347 0
-308 -348 0
-308 -349 0
-308 -350 0
-308 -351 0
-308 -352 0
-308 -353 0
-308 -354 0
-308 -355 0
-308 -356 0
-308 -357 0
-308 -358 0
-308 -359 0
-308 -360 0
-308 -361 0
-308 -362 0
-308 -363 0
-308 -364 0
-308 -365 0
-308 -366 0
-308 -367 0
-308 -368 0
-308 -369 0
-308 -370 0
-308 -371 0
-308 -372 0
-308 -373 0
-308 -374 0
-308 -375 0
-308 -376 0
-308 -377 0
-308 -378 0
-308 -379 0
-308 -380 0
-308 -381 0
-308 -382 0
-308 -383 0
-308 -384 0
-308 -385 0
-308 -386 0
-308 -387 0
-308 -388 0
-308 -389 0
-308 -390 0
-308 -391 0
-308 -392 0
-308 -393 0
-308 -394 0
-308 -395 0
-308 -396 0
-308 -397 0
-308 -398 0
-308 -399 0
-308 -400 0
-308 -401 0
-308 -402 0
-308 -403 0
-308 -404 0
-308 -405 0
-308 -406 0
-308 -407 0
-308 -408 0
-308 -409 0
-308 -410 0
-308 -411 0
-308 -412 0
-308 -413 0
-308 -414 0
-308 -415 0
-308 -416 0
-309 -310 0
-309 -311 0
-309 -312 0
-309 -313 0
-309 -314 0
-309 -315 0
-309 -316 0
-309 -317 0
-309 -318 0
-309 -319 0
-309 -320 0
-309 -321 0
-309 -322 0
-309 -323 0
-309 -324 0
-309 -325 0
-309 -326 0
-309 -327 0
-309 -328 0
-309 -329 0
-309 -330 0
-309 -331 0
-309 -332 0
-309 -333 0
-309 -334 0
-309 -335 0
-309 -336 0
-309 -337 0
-309 -338 0
-309 -339 0
-309 -340 0
-309 -341 0
-309 -342 0
-309 -343 0
-309 -344 0
-309 -345 0
-309 -346 0
-309 -347 0
-309 -348 0
-309 -349 0
-309 -350 0
-309 -351 0
-309 -352 0
-309 -353 0
-309 -354 0
-309 -355 0
-309 -356 0
-309 -357 0
-309 -358 0
-309 -359 0
-309 -360 0
-309 -361 0
-309 -362 0
-309 -363 0
-309 -364 0
-309 -365 0
-309 -366 0
-309 -367 0
-309 -368 0
-309 -369 0
-309 -370 0
-309 -371 0
-309 -372 0
-309 -373 0
-309 -374 0
-309 -375 0
-309 -376 0
-309 -377 0
-309 -378 0
-309 -379 0
-309 -380 0
-309 -381 0
-309 -382 0
-309 -383 0
-309 -384 0
-309 -385 0
-309 -386 0
-309 -387 0
-309 -388 0
-309 -389 0
-309 -390 0
-309 -391 0
-309 -392 0
-309 -393 0
-309 -394 0
-309 -395 0
-309 -396 0
-309 -397 0
-309 -398 0
-309 -399 0
-309 -400 0
-309 -401 0
-309 -402 0
-309 -403 0
-309 -404 0
-309 -405 0
-309 -406 0
-309 -407 0
-309 -408 0
-309 -409 0
-309 -410 0
-309 -411 0
-309 -412 0
-309 -413 0
-309 -414 0
-309 -415 0
-309 -416 0
-310 -311 0
-310 -312 0
-310 -313 0
-310 -314 0
-310 -315 0
-310 -316 0
-310 -317 0
-310 -318 0
-310 -319 0
-310 -320 0
-310 -321 0
-310 -322 0
-310 -323 0
-310 -324 0
-310 -325 0
-310 -326 0
-310 -327 0
-310 -328 0
-310 -329 0
-310 -330 0
-310 -331 0
-310 -332 0
-310 -333 0
-310 -334 0
-310 -335 0
-310 -336 0
-310 -337 0
-310 -338 0
-310 -339 0
-310 -340 0
-310 -341 0
-310 -342 0
-310 -343 0
-310 -344 0
-310 -345 0
-310 -346 0
-310 -347 0
-310 -348 0
-310 -349 0
-310 -350 0
-310 -351 0
-310 -352 0
-310 -353 0
-310 -354 0
-310 -355 0
-310 -356 0
-310 -357 0
-310 -358 0
-310 -359 0
-310 -360 0
-310 -361 0
-310 -362 0
-310 -363 0
-310 -364 0
-310 -365 0
-310 -366 0
-310 -367 0
-310 -368 0
-310 -369 0
-310 -370 0
-310 -371 0
-310 -372 0
-310 -373 0
-310 -374 0
-310 -375 0
-310 -376 0
-310 -377 0
-310 -378 0
-310 -379 0
-310 -380 0
-310 -381 0
-310 -382 0
-310 -383 0
-310 -384 0
-310 -385 0
-310 -386 0
-310 -387 0
-310 -388 0
-310 -389 0
-310 -390 0
-310 -391 0
-310 -392 0
-310 -393 0
-310 -394 0
-310 -395 0
-310 -396 0
-310 -397 0
-310 -398 0
-310 -399 0
-310 -400 0
-310 -401 0
-310 -402 0
-310 -403 0
-310 -404 0
-310 -405 0
-310 -406 0
-310 -407 0
-310 -408 0
-310 -409 0
-310 -410 0
-310 -411 0
-310 -412 0
-310 -413 0
-310 -414 0
-310 -415 0
-310 -416 0
-311 -312 0
-311 -313 0
-311 -314 0
-311 -315 0
-311 -316 0
-311 -317 0
-311 -318 0
-311 -319 0
-311 -320 0
-311 -321 0
-311 -322 0
-311 -323 0
-311 -324 0
-311 -325 0
-311 -326 0
-311 -327 0
-311 -328 0
-311 -329 0
-311 -330 0
-311 -331 0
-311 -332 0
-311 -333 0
-311 -334 0
-311 -335 0
-311 -336 0
-311 -337 0
-311 -338 0
-311 -339 0
-311 -340 0
-311 -341 0
-311 -342 0
-311 -343 0
-311 -344 0
-311 -345 0
-311 -346 0
-311 -347 0
-311 -348 0
-311 -349 0
-311 -350 0
-311 -351 0
-311 -352 0
-311 -353 0
-311 -354 0
-311 -355 0
-311 -356 0
-311 -357 0
-311 -358 0
-311 -359 0
-311 -360 0
-311 -361 0
-311 -362 0
-311 -363 0
-311 -364 0
-311 -365 0
-311 -366 0
-311 -367 0
-311 -368 0
-311 -369 0
-311 -370 0
-311 -371 0
-311 -372 0
-311 -373 0
-311 -374 0
-311 -375 0
-311 -376 0
-311 -377 0
-311 -378 0
-311 -379 0
-311 -380 0
-311 -381 0
-311 -382 0
-311 -383 0
-311 -384 0
-311 -385 0
-311 -386 0
-311 -387 0
-311 -388 0
-311 -389 0
-311 -390 0
-311 -391 0
-311 -392 0
-311 -393 0
-311 -394 0
-311 -395 0
-311 -396 0
-311 -397 0
-311 -398 0
-311 -399 0
-311 -400 0
-311 -401 0
-311 -402 0
-311 -403 0
-311 -404 0
-311 -405 0
-311 -406 0
-311 -407 0
-311 -408 0
-311 -409 0
-311 -410 0
-311 -411 0
-311 -412 0
-311 -413 0
-311 -414 0
-311 -415 0
-311 -416 0
-312 -313 0
-312 -314 0
-312 -315 0
-312 -316 0
-312 -317 0
-312 -318 0
-312 -319 0
-312 -320 0
-312 -321 0
-312 -322 0
-312 -323 0
-312 -324 0
-312 -325 0
-312 -326 0
-312 -327 0
-312 -328 0
-312 -329 0
-312 -330 0
-312 -331 0
-312 -332 0
-312 -333 0
-312 -334 0
-312 -335 0
-312 -336 0
-312 -337 0
-312 -338 0
-312 -339 0
-312 -340 0
-312 -341 0
-312 -342 0
-312 -343 0
-312 -344 0
-312 -345 0
-312 -346 0
-312 -347 0
-312 -348 0
-312 -349 0
-312 -350 0
-312 -351 0
-312 -352 0
-312 -353 0
-312 -354 0
-312 -355 0
-312 -356 0
-312 -357 0
-312 -358 0
-312 -359 0
-312 -360 0
-312 -361 0
-312 -362 0
-312 -363 0
-312 -364 0
-312 -365 0
-312 -366 0
-312 -367 0
-312 -368 0
-312 -369 0
-312 -370 0
-312 -371 0
-312 -372 0
-312 -373 0
-312 -374 0
-312 -375 0
-312 -376 0
-312 -377 0
-312 -378 0
-312 -379 0
-312 -380 0
-312 -381 0
-312 -382 0
-312 -383 0
-312 -384 0
-312 -385 0
-312 -386 0
-312 -387 0
-312 -388 0
-312 -389 0
-312 -390 0
-312 -391 0
-312 -392 0
-312 -393 0
-312 -394 0
-312 -395 0
-312 -396 0
-312 -397 0
-312 -398 0
-312 -399 0
-312 -400 0
-312 -401 0
-312 -402 0
-312 -403 0
-312 -404 0
-312 -405 0
-312 -406 0
-312 -407 0
-312 -408 0
-312 -409 0
-312 -410 0
-312 -411 0
-312 -412 0
-312 -413 0
-312 -414 0
-312 -415 0
-312 -416 0
-313 -314 0
-313 -315 0
-313 -316 0
-313 -317 0
-313 -318 0
-313 -319 0
-313 -320 0
-313 -321 0
-313 -322 0
-313 -323 0
-313 -324 0
-313 -325 0
-313 -326 0
-313 -327 0
-313 -328 0
-313 -329 0
-313 -330 0
-313 -331 0
-313 -332 0
-313 -333 0
-313 -334 0
-313 -335 0
-313 -336 0
-313 -337 0
-313 -338 0
-313 -339 0
-313 -340 0
-313 -341 0
-313 -342 0
-313 -343 0
-313 -344 0
-313 -345 0
-313 -346 0
-313 -347 0
-313 -348 0
-313 -349 0
-313 -350 0
-313 -351 0
-313 -352 0
-313 -353 0
-313 -354 0
-313 -355 0
-313 -356 0
-313 -357 0
-313 -358 0
-313 -359 0
-313 -360 0
-313 -361 0
-313 -362 0
-313 -363 0
-313 -364 0
-313 -365 0
-313 -366 0
-313 -367 0
-313 -368 0
-313 -369 0
-313 -370 0
-313 -371 0
-313 -372 0
-313 -373 0
-313 -374 0
-313 -375 0
-313 -376 0
-313 -377 0
-313 -378 0
-313 -379 0
-313 -380 0
-313 -381 0
-313 -382 0
-313 -383 0
-313 -384 0
-313 -385 0
-313 -386 0
-313 -387 0
-313 -388 0
-313 -389 0
-313 -390 0
-313 -391 0
-313 -392 0
-313 -393 0
-313 -394 0
-313 -395 0
-313 -396 0
-313 -397 0
-313 -398 0
-313 -399 0
-313 -400 0
-313 -401 0
-313 -402 0
-313 -403 0
-313 -404 0
-313 -405 0
-313 -406 0
-313 -407 0
-313 -408 0
-313 -409 0
-313 -410 0
-313 -411 0
-313 -412 0
-313 -413 0
-313 -414 0
-313 -415 0
-313 -416 0
-314 -315 0
-314 -316 0
-314 -317 0
-314 -318 0
-314 -319 0
-314 -320 0
-314 -321 0
-314 -322 0
-314 -323 0
-314 -324 0
-314 -325 0
-314 -326 0
-314 -327 0
-314 -328 0
-314 -329 0
-314 -330 0
-314 -331 0
-314 -332 0
-314 -333 0
-314 -334 0
-314 -335 0
-314 -336 0
-314 -337 0
-314 -338 0
-314 -339 0
-314 -340 0
-314 -341 0
-314 -342 0
-314 -343 0
-314 -344 0
-314 -345 0
-314 -346 0
-314 -347 0
-314 -348 0
-314 -349 0
-314 -350 0
-314 -351 0
-314 -352 0
-314 -353 0
-314 -354 0
-314 -355 0
-314 -356 0
-314 -357 0
-314 -358 0
-314 -359 0
-314 -360 0
-314 -361 0
-314 -362 0
-314 -363 0
-314 -364 0
-314 -365 0
-314 -366 0
-314 -367 0
-314 -368 0
-314 -369 0
-314 -370 0
-314 -371 0
-314 -372 0
-314 -373 0
-314 -374 0
-314 -375 0
-314 -376 0
-314 -377 0
-314 -378 0
-314 -379 0
-314 -380 0
-314 -381 0
-314 -382 0
-314 -383 0
-314 -384 0
-314 -385 0
-314 -386 0
-314 -387 0
-314 -388 0
-314 -389 0
-314 -390 0
-314 -391 0
-314 -392 0
-314 -393 0
-314 -394 0
-314 -395 0
-314 -396 0
-314 -397 0
-314 -398 0
-314 -399 0
-314 -400 0
-314 -401 0
-314 -402 0
-314 -403 0
-314 -404 0
-314 -405 0
-314 -406 0
-314 -407 0
-314 -408 0
-314 -409 0
-314 -410 0
-314 -411 0
-314 -412 0
-314 -413 0
-314 -414 0
-314 -415 0
-314 -416 0
-315 -316 0
-315 -317 0
-315 -318 0
-315 -319 0
-315 -320 0
-315 -321 0
-315 -322 0
-315 -323 0
-315 -324 0
-315 -325 0
-315 -326 0
-315 -327 0
-315 -328 0
-315 -329 0
-315 -330 0
-315 -331 0
-315 -332 0
-315 -333 0
-315 -334 0
-315 -335 0
-315 -336 0
-315 -337 0
-315 -338 0
-315 -339 0
-315 -340 0
-315 -341 0
-315 -342 0
-315 -343 0
-315 -344 0
-315 -345 0
-315 -346 0
-315 -347 0
-315 -348 0
-315 -349 0
-315 -350 0
-315 -351 0
-315 -352 0
-315 -353 0
-315 -354 0
-315 -355 0
-315 -356 0
-315 -357 0
-315 -358 0
-315 -359 0
-315 -360 0
-315 -361 0
-315 -362 0
-315 -363 0
-315 -364 0
-315 -365 0
-315 -366 0
-315 -367 0
-315 -368 0
-315 -369 0
-315 -370 0
-315 -371 0
-315 -372 0
-315 -373 0
-315 -374 0
-315 -375 0
-315 -376 0
-315 -377 0
-315 -378 0
-315 -379 0
-315 -380 0
-315 -381 0
-315 -382 0
-315 -383 0
-315 -384 0
-315 -385 0
-315 -386 0
-315 -387 0
-315 -388 0
-315 -389 0
-315 -390 0
-315 -391 0
-315 -392 0
-315 -393 0
-315 -394 0
-315 -395 0
-315 -396 0
-315 -397 0
-315 -398 0
-315 -399 0
-315 -400 0
-315 -401 0
-315 -402 0
-315 -403 0
-315 -404 0
-315 -405 0
-315 -406 0
-315 -407 0
-315 -408 0
-315 -409 0
-315 -410 0
-315 -411 0
-315 -412 0
-315 -413 0
-315 -414 0
-315 -415 0
-315 -416 0
-316 -317 0
-316 -318 0
-316 -319 0
-316 -320 0
-316 -321 0
-316 -322 0
-316 -323 0
-316 -324 0
-316 -325 0
-316 -326 0
-316 -327 0
-316 -328 0
-316 -329 0
-316 -330 0
-316 -331 0
-316 -332 0
-316 -333 0
-316 -334 0
-316 -335 0
-316 -336 0
-316 -337 0
-316 -338 0
-316 -339 0
-316 -340 0
-316 -341 0
-316 -342 0
-316 -343 0
-316 -344 0
-316 -345 0
-316 -346 0
-316 -347 0
-316 -348 0
-316 -349 0
-316 -350 0
-316 -351 0
-316 -352 0
-316 -353 0
-316 -354 0
-316 -355 0
-316 -356 0
-316 -357 0
-316 -358 0
-316 -359 0
-316 -360 0
-316 -361 0
-316 -362 0
-316 -363 0
-316 -364 0
-316 -365 0
-316 -366 0
-316 -367 0
-316 -368 0
-316 -369 0
-316 -370 0
-316 -371 0
-316 -372 0
-316 -373 0
-316 -374 0
-316 -375 0
-316 -376 0
-316 -377 0
-316 -378 0
-316 -379 0
-316 -380 0
-316 -381 0
-316 -382 0
-316 -383 0
-316 -384 0
-316 -385 0
-316 -386 0
-316 -387 0
-316 -388 0
-316 -389 0
-316 -390 0
-316 -391 0
-316 -392 0
-316 -393 0
-316 -394 0
-316 -395 0
-316 -396 0
-316 -397 0
-316 -398 0
-316 -399 0
-316 -400 0
-316 -401 0
-316 -402 0
-316 -403 0
-316 -404 0
-316 -405 0
-316 -406 0
-316 -407 0
-316 -408 0
-316 -409 0
-316 -410 0
-316 -411 0
-316 -412 0
-316 -413 0
-316 -414 0
-316 -415 0
-316 -416 0
-317 -318 0
-317 -319 0
-317 -320 0
-317 -321 0
-317 -322 0
-317 -323 0
-317 -324 0
-317 -325 0
-317 -326 0
-317 -327 0
-317 -328 0
-317 -329 0
-317 -330 0
-317 -331 0
-317 -332 0
-317 -333 0
-317 -334 0
-317 -335 0
-317 -336 0
-317 -337 0
-317 -338 0
-317 -339 0
-317 -340 0
-317 -341 0
-317 -342 0
-317 -343 0
-317 -344 0
-317 -345 0
-317 -346 0
-317 -347 0
-317 -348 0
-317 -349 0
-317 -350 0
-317 -351 0
-317 -352 0
-317 -353 0
-317 -354 0
-317 -355 0
-317 -356 0
-317 -357 0
-317 -358 0
-317 -359 0
-317 -360 0
-317 -361 0
-317 -362 0
-317 -363 0
-317 -364 0
-317 -365 0
-317 -366 0
-317 -367 0
-317 -368 0
-317 -369 0
-317 -370 0
-317 -371 0
-317 -372 0
-317 -373 0
-317 -374 0
-317 -375 0
-317 -376 0
-317 -377 0
-317 -378 0
-317 -379 0
-317 -380 0
-317 -381 0
-317 -382 0
-317 -383 0
-317 -384 0
-317 -385 0
-317 -386 0
-317 -387 0
-317 -388 0
-317 -389 0
-317 -390 0
-317 -391 0
-317 -392 0
-317 -393 0
-317 -394 0
-317 -395 0
-317 -396 0
-317 -397 0
-317 -398 0
-317 -399 0
-317 -400 0
-317 -401 0
-317 -402 0
-317 -403 0
-317 -404 0
-317 -405 0
-317 -406 0
-317 -407 0
-317 -408 0
-317 -409 0
-317 -410 0
-317 -411 0
-317 -412 0
-317 -413 0
-317 -414 0
-317 -415 0
-317 -416 0
-318 -319 0
-318 -320 0
-318 -321 0
-318 -322 0
-318 -323 0
-318 -324 0
-318 -325 0
-318 -326 0
-318 -327 0
-318 -328 0
-318 -329 0
-318 -330 0
-318 -331 0
-318 -332 0
-318 -333 0
-318 -334 0
-318 -335 0
-318 -336 0
-318 -337 0
-318 -338 0
-318 -339 0
-318 -340 0
-318 -341 0
-318 -342 0
-318 -343 0
-318 -344 0
-318 -345 0
-318 -346 0
-318 -347 0
-318 -348 0
-318 -349 0
-318 -350 0
-318 -351 0
-318 -352 0
-318 -353 0
-318 -354 0
-318 -355 0
-318 -356 0
-318 -357 0
-318 -358 0
-318 -359 0
-318 -360 0
-318 -361 0
-318 -362 0
-318 -363 0
-318 -364 0
-318 -365 0
-318 -366 0
-318 -367 0
-318 -368 0
-318 -369 0
-318 -370 0
-318 -371 0
-318 -372 0
-318 -373 0
-318 -374 0
-318 -375 0
-318 -376 0
-318 -377 0
-318 -378 0
-318 -379 0
-318 -380 0
-318 -381 0
-318 -382 0
-318 -383 0
-318 -384 0
-318 -385 0
-318 -386 0
-318 -387 0
-318 -388 0
-318 -389 0
-318 -390 0
-318 -391 0
-318 -392 0
-318 -393 0
-318 -394 0
-318 -395 0
-318 -396 0
-318 -397 0
-318 -398 0
-318 -399 0
-318 -400 0
-318 -401 0
-318 -402 0
-318 -403 0
-318 -404 0
-318 -405 0
-318 -406 0
-318 -407 0
-318 -408 0
-318 -409 0
-318 -410 0
-318 -411 0
-318 -412 0
-318 -413 0
-318 -414 0
-318 -415 0
-318 -416 0
-319 -320 0
-319 -321 0
-319 -322 0
-319 -323 0
-319 -324 0
-319 -325 0
-319 -326 0
-319 -327 0
-319 -328 0
-319 -329 0
-319 -330 0
-319 -331 0
-319 -332 0
-319 -333 0
-319 -334 0
-319 -335 0
-319 -336 0
-319 -337 0
-319 -338 0
-319 -339 0
-319 -340 0
-319 -341 0
-319 -342 0
-319 -343 0
-319 -344 0
-319 -345 0
-319 -346 0
-319 -347 0
-319 -348 0
-319 -349 0
-319 -350 0
-319 -351 0
-319 -352 0
-319 -353 0
-319 -354 0
-319 -355 0
-319 -356 0
-319 -357 0
-319 -358 0
-319 -359 0
-319 -360 0
-319 -361 0
-319 -362 0
-319 -363 0
-319 -364 0
-319 -365 0
-319 -366 0
-319 -367 0
-319 -368 0
-319 -369 0
-319 -370 0
-319 -371 0
-319 -372 0
-319 -373 0
-319 -374 0
-319 -375 0
-319 -376 0
-319 -377 0
-319 -378 0
-319 -379 0
-319 -380 0
-319 -381 0
-319 -382 0
-319 -383 0
-319 -384 0
-319 -385 0
-319 -386 0
-319 -387 0
-319 -388 0
-319 -389 0
-319 -390 0
-319 -391 0
-319 -392 0
-319 -393 0
-319 -394 0
-319 -395 0
-319 -396 0
-319 -397 0
-319 -398 0
-319 -399 0
-319 -400 0
-319 -401 0
-319 -402 0
-319 -403 0
-319 -404 0
-319 -405 0
-319 -406 0
-319 -407 0
-319 -408 0
-319 -409 0
-319 -410 0
-319 -411 0
-319 -412 0
-319 -413 0
-319 -414 0
-319 -415 0
-319 -416 0
-320 -321 0
-320 -322 0
-320 -323 0
-320 -324 0
-320 -325 0
-320 -326 0
-320 -327 0
-320 -328 0
-320 -329 0
-320 -330 0
-320 -331 0
-320 -332 0
-320 -333 0
-320 -334 0
-320 -335 0
-320 -336 0
-320 -337 0
-320 -338 0
-320 -339 0
-320 -340 0
-320 -341 0
-320 -342 0
-320 -343 0
-320 -344 0
-320 -345 0
-320 -346 0
-320 -347 0
-320 -348 0
-320 -349 0
-320 -350 0
-320 -351 0
-320 -352 0
-320 -353 0
-320 -354 0
-320 -355 0
-320 -356 0
-320 -357 0
-320 -358 0
-320 -359 0
-320 -360 0
-320 -361 0
-320 -362 0
-320 -363 0
-320 -364 0
-320 -365 0
-320 -366 0
-320 -367 0
-320 -368 0
-320 -369 0
-320 -370 0
-320 -371 0
-320 -372 0
-320 -373 0
-320 -374 0
-320 -375 0
-320 -376 0
-320 -377 0
-320 -378 0
-320 -379 0
-320 -380 0
-320 -381 0
-320 -382 0
-320 -383 0
-320 -384 0
-320 -385 0
-320 -386 0
-320 -387 0
-320 -388 0
-320 -389 0
-320 -390 0
-320 -391 0
-320 -392 0
-320 -393 0
-320 -394 0
-320 -395 0
-320 -396 0
-320 -397 0
-320 -398 0
-320 -399 0
-320 -400 0
-320 -401 0
-320 -402 0
-320 -403 0
-320 -404 0
-320 -405 0
-320 -406 0
-320 -407 0
-320 -408 0
-320 -409 0
-320 -410 0
-320 -411 0
-320 -412 0
-320 -413 0
-320 -414 0
-320 -415 0
-320 -416 0
-321 -322 0
-321 -323 0
-321 -324 0
-321 -325 0
-321 -326 0
-321 -327 0
-321 -328 0
-321 -329 0
-321 -330 0
-321 -331 0
-321 -332 0
-321 -333 0
-321 -334 0
-321 -335 0
-321 -336 0
-321 -337 0
-321 -338 0
-321 -339 0
-321 -340 0
-321 -341 0
-321 -342 0
-321 -343 0
-321 -344 0
-321 -345 0
-321 -346 0
-321 -347 0
-321 -348 0
-321 -349 0
-321 -350 0
-321 -351 0
-321 -352 0
-321 -353 0
-321 -354 0
-321 -355 0
-321 -356 0
-321 -357 0
-321 -358 0
-321 -359 0
-321 -360 0
-321 -361 0
-321 -362 0
-321 -363 0
-321 -364 0
-321 -365 0
-321 -366 0
-321 -367 0
-321 -368 0
-321 -369 0
-321 -370 0
-321 -371 0
-321 -372 0
-321 -373 0
-321 -374 0
-321 -375 0
-321 -376 0
-321 -377 0
-321 -378 0
-321 -379 0
-321 -380 0
-321 -381 0
-321 -382 0
-321 -383 0
-321 -384 0
-321 -385 0
-321 -386 0
-321 -387 0
-321 -388 0
-321 -389 0
-321 -390 0
-321 -391 0
-321 -392 0
-321 -393 0
-321 -394 0
-321 -395 0
-321 -396 0
-321 -397 0
-321 -398 0
-321 -399 0
-321 -400 0
-321 -401 0
-321 -402 0
-321 -403 0
-321 -404 0
-321 -405 0
-321 -406 0
-321 -407 0
-321 -408 0
-321 -409 0
-321 -410 0
-321 -411 0
-321 -412 0
-321 -413 0
-321 -414 0
-321 -415 0
-321 -416 0
-322 -323 0
-322 -324 0
-322 -325 0
-322 -326 0
-322 -327 0
-322 -328 0
-322 -329 0
-322 -330 0
-322 -331 0
-322 -332 0
-322 -333 0
-322 -334 0
-322 -335 0
-322 -336 0
-322 -337 0
-322 -338 0
-322 -339 0
-322 -340 0
-322 -341 0
-322 -342 0
-322 -343 0
-322 -344 0
-322 -345 0
-322 -346 0
-322 -347 0
-322 -348 0
-322 -349 0
-322 -350 0
-322 -351 0
-322 -352 0
-322 -353 0
-322 -354 0
-322 -355 0
-322 -356 0
-322 -357 0
-322 -358 0
-322 -359 0
-322 -360 0
-322 -361 0
-322 -362 0
-322 -363 0
-322 -364 0
-322 -365 0
-322 -366 0
-322 -367 0
-322 -368 0
-322 -369 0
-322 -370 0
-322 -371 0
-322 -372 0
-322 -373 0
-322 -374 0
-322 -375 0
-322 -376 0
-322 -377 0
-322 -378 0
-322 -379 0
-322 -380 0
-322 -381 0
-322 -382 0
-322 -383 0
-322 -384 0
-322 -385 0
-322 -386 0
-322 -387 0
-322 -388 0
-322 -389 0
-322 -390 0
-322 -391 0
-322 -392 0
-322 -393 0
-322 -394 0
-322 -395 0
-322 -396 0
-322 -397 0
-322 -398 0
-322 -399 0
-322 -400 0
-322 -401 0
-322 -402 0
-322 -403 0
-322 -404 0
-322 -405 0
-322 -406 0
-322 -407 0
-322 -408 0
-322 -409 0
-322 -410 0
-322 -411 0
-322 -412 0
-322 -413 0
-322 -414 0
-322 -415 0
-322 -416 0
-323 -324 0
-323 -325 0
-323 -326 0
-323 -327 0
-323 -328 0
-323 -329 0
-323 -330 0
-323 -331 0
-323 -332 0
-323 -333 0
-323 -334 0
-323 -335 0
-323 -336 0
-323 -337 0
-323 -338 0
-323 -339 0
-323 -340 0
-323 -341 0
-323 -342 0
-323 -343 0
-323 -344 0
-323 -345 0
-323 -346 0
-323 -347 0
-323 -348 0
-323 -349 0
-323 -350 0
-323 -351 0
-323 -352 0
-323 -353 0
-323 -354 0
-323 -355 0
-323 -356 0
-323 -357 0
-323 -358 0
-323 -359 0
-323 -360 0
-323 -361 0
-323 -362 0
-323 -363 0
-323 -364 0
-323 -365 0
-323 -366 0
-323 -367 0
-323 -368 0
-323 -369 0
-323 -370 0
-323 -371 0
-323 -372 0
-323 -373 0
-323 -374 0
-323 -375 0
-323 -376 0
-323 -377 0
-323 -378 0
-323 -379 0
-323 -380 0
-323 -381 0
-323 -382 0
-323 -383 0
-323 -384 0
-323 -385 0
-323 -386 0
-323 -387 0
-323 -388 0
-323 -389 0
-323 -390 0
-323 -391 0
-323 -392 0
-323 -393 0
-323 -394 0
-323 -395 0
-323 -396 0
-323 -397 0
-323 -398 0
-323 -399 0
-323 -400 0
-323 -401 0
-323 -402 0
-323 -403 0
-323 -404 0
-323 -405 0
-323 -406 0
-323 -407 0
-323 -408 0
-323 -409 0
-323 -410 0
-323 -411 0
-323 -412 0
-323 -413 0
-323 -414 0
-323 -415 0
-323 -416 0
-324 -325 0
-324 -326 0
-324 -327 0
-324 -328 0
-324 -329 0
-324 -330 0
-324 -331 0
-324 -332 0
-324 -333 0
-324 -334 0
-324 -335 0
-324 -336 0
-324 -337 0
-324 -338 0
-324 -339 0
-324 -340 0
-324 -341 0
-324 -342 0
-324 -343 0
-324 -344 0
-324 -345 0
-324 -346 0
-324 -347 0
-324 -348 0
-324 -349 0
-324 -350 0
-324 -351 0
-324 -352 0
-324 -353 0
-324 -354 0
-324 -355 0
-324 -356 0
-324 -357 0
-324 -358 0
-324 -359 0
-324 -360 0
-324 -361 0
-324 -362 0
-324 -363 0
-324 -364 0
-324 -365 0
-324 -366 0
-324 -367 0
-324 -368 0
-324 -369 0
-324 -370 0
-324 -371 0
-324 -372 0
-324 -373 0
-324 -374 0
-324 -375 0
-324 -376 0
-324 -377 0
-324 -378 0
-324 -379 0
-324 -380 0
-324 -381 0
-324 -382 0
-324 -383 0
-324 -384 0
-324 -385 0
-324 -386 0
-324 -387 0
-324 -388 0
-324 -389 0
-324 -390 0
-324 -391 0
-324 -392 0
-324 -393 0
-324 -394 0
-324 -395 0
-324 -396 0
-324 -397 0
-324 -398 0
-324 -399 0
-324 -400 0
-324 -401 0
-324 -402 0
-324 -403 0
-324 -404 0
-324 -405 0
-324 -406 0
-324 -407 0
-324 -408 0
-324 -409 0
-324 -410 0
-324 -411 0
-324 -412 0
-324 -413 0
-324 -414 0
-324 -415 0
-324 -416 0
-325 -326 0
-325 -327 0
-325 -328 0
-325 -329 0
-325 -330 0
-325 -331 0
-325 -332 0
-325 -333 0
-325 -334 0
-325 -335 0
-325 -336 0
-325 -337 0
-325 -338 0
-325 -339 0
-325 -340 0
-325 -341 0
-325 -342 0
-325 -343 0
-325 -344 0
-325 -345 0
-325 -346 0
-325 -347 0
-325 -348 0
-325 -349 0
-325 -350 0
-325 -351 0
-325 -352 0
-325 -353 0
-325 -354 0
-325 -355 0
-325 -356 0
-325 -357 0
-325 -358 0
-325 -359 0
-325 -360 0
-325 -361 0
-325 -362 0
-325 -363 0
-325 -364 0
-325 -365 0
-325 -366 0
-325 -367 0
-325 -368 0
-325 -369 0
-325 -370 0
-325 -371 0
-325 -372 0
-325 -373 0
-325 -374 0
-325 -375 0
-325 -376 0
-325 -377 0
-325 -378 0
-325 -379 0
-325 -380 0
-325 -381 0
-325 -382 0
-325 -383 0
-325 -384 0
-325 -385 0
-325 -386 0
-325 -387 0
-325 -388 0
-325 -389 0
-325 -390 0
-325 -391 0
-325 -392 0
-325 -393 0
-325 -394 0
-325 -395 0
-325 -396 0
-325 -397 0
-325 -398 0
-325 -399 0
-325 -400 0
-325 -401 0
-325 -402 0
-325 -403 0
-325 -404 0
-325 -405 0
-325 -406 0
-325 -407 0
-325 -408 0
-325 -409 0
-325 -410 0
-325 -411 0
-325 -412 0
-325 -413 0
-325 -414 0
-325 -415 0
-325 -416 0
-326 -327 0
-326 -328 0
-326 -329 0
-326 -330 0
-326 -331 0
-326 -332 0
-326 -333 0
-326 -334 0
-326 -335 0
-326 -336 0
-326 -337 0
-326 -338 0
-326 -339 0
-326 -340 0
-326 -341 0
-326 -342 0
-326 -343 0
-326 -344 0
-326 -345 0
-326 -346 0
-326 -347 0
-326 -348 0
-326 -349 0
-326 -350 0
-326 -351 0
-326 -352 0
-326 -353 0
-326 -354 0
-326 -355 0
-326 -356 0
-326 -357 0
-326 -358 0
-326 -359 0
-326 -360 0
-326 -361 0
-326 -362 0
-326 -363 0
-326 -364 0
-326 -365 0
-326 -366 0
-326 -367 0
-326 -368 0
-326 -369 0
-326 -370 0
-326 -371 0
-326 -372 0
-326 -373 0
-326 -374 0
-326 -375 0
-326 -376 0
-326 -377 0
-326 -378 0
-326 -379 0
-326 -380 0
-326 -381 0
-326 -382 0
-326 -383 0
-326 -384 0
-326 -385 0
-326 -386 0
-326 -387 0
-326 -388 0
-326 -389 0
-326 -390 0
-326 -391 0
-326 -392 0
-326 -393 0
-326 -394 0
-326 -395 0
-326 -396 0
-326 -397 0
-326 -398 0
-326 -399 0
-326 -400 0
-326 -401 0
-326 -402 0
-326 -403 0
-326 -404 0
-326 -405 0
-326 -406 0
-326 -407 0
-326 -408 0
-326 -409 0
-326 -410 0
-326 -411 0
-326 -412 0
-326 -413 0
-326 -414 0
-326 -415 0
-326 -416 0
-327 -328 0
-327 -329 0
-327 -330 0
-327 -331 0
-327 -332 0
-327 -333 0
-327 -334 0
-327 -335 0
-327 -336 0
-327 -337 0
-327 -338 0
-327 -339 0
-327 -340 0
-327 -341 0
-327 -342 0
-327 -343 0
-327 -344 0
-327 -345 0
-327 -346 0
-327 -347 0
-327 -348 0
-327 -349 0
-327 -350 0
-327 -351 0
-327 -352 0
-327 -353 0
-327 -354 0
-327 -355 0
-327 -356 0
-327 -357 0
-327 -358 0
-327 -359 0
-327 -360 0
-327 -361 0
-327 -362 0
-327 -363 0
-327 -364 0
-327 -365 0
-327 -366 0
-327 -367 0
-327 -368 0
-327 -369 0
-327 -370 0
-327 -371 0
-327 -372 0
-327 -373 0
-327 -374 0
-327 -375 0
-327 -376 0
-327 -377 0
-327 -378 0
-327 -379 0
-327 -380 0
-327 -381 0
-327 -382 0
-327 -383 0
-327 -384 0
-327 -385 0
-327 -386 0
-327 -387 0
-327 -388 0
-327 -389 0
-327 -390 0
-327 -391 0
-327 -392 0
-327 -393 0
-327 -394 0
-327 -395 0
-327 -396 0
-327 -397 0
-327 -398 0
-327 -399 0
-327 -400 0
-327 -401 0
-327 -402 0
-327 -403 0
-327 -404 0
-327 -405 0
-327 -406 0
-327 -407 0
-327 -408 0
-327 -409 0
-327 -410 0
-327 -411 0
-327 -412 0
-327 -413 0
-327 -414 0
-327 -415 0
-327 -416 0
-328 -329 0
-328 -330 0
-328 -331 0
-328 -332 0
-328 -333 0
-328 -334 0
-328 -335 0
-328 -336 0
-328 -337 0
-328 -338 0
-328 -339 0
-328 -340 0
-328 -341 0
-328 -342 0
-328 -343 0
-328 -344 0
-328 -345 0
-328 -346 0
-328 -347 0
-328 -348 0
-328 -349 0
-328 -350 0
-328 -351 0
-328 -352 0
-328 -353 0
-328 -354 0
-328 -355 0
-328 -356 0
-328 -357 0
-328 -358 0
-328 -359 0
-328 -360 0
-328 -361 0
-328 -362 0
-328 -363 0
-328 -364 0
-328 -365 0
-328 -366 0
-328 -367 0
-328 -368 0
-328 -369 0
-328 -370 0
-328 -371 0
-328 -372 0
-328 -373 0
-328 -374 0
-328 -375 0
-328 -376 0
-328 -377 0
-328 -378 0
-328 -379 0
-328 -380 0
-328 -381 0
-328 -382 0
-328 -383 0
-328 -384 0
-328 -385 0
-328 -386 0
-328 -387 0
-328 -388 0
-328 -389 0
-328 -390 0
-328 -391 0
-328 -392 0
-328 -393 0
-328 -394 0
-328 -395 0
-328 -396 0
-328 -397 0
-328 -398 0
-328 -399 0
-328 -400 0
-328 -401 0
-328 -402 0
-328 -403 0
-328 -404 0
-328 -405 0
-328 -406 0
-328 -407 0
-328 -408 0
-328 -409 0
-328 -410 0
-328 -411 0
-328 -412 0
-328 -413 0
-328 -414 0
-328 -415 0
-328 -416 0
-329 -330 0
-329 -331 0
-329 -332 0
-329 -333 0
-329 -334 0
-329 -335 0
-329 -336 0
-329 -337 0
-329 -338 0
-329 -339 0
-329 -340 0
-329 -341 0
-329 -342 0
-329 -343 0
-329 -344 0
-329 -345 0
-329 -346 0
-329 -347 0
-329 -348 0
-329 -349 0
-329 -350 0
-329 -351 0
-329 -352 0
-329 -353 0
-329 -354 0
-329 -355 0
-329 -356 0
-329 -357 0
-329 -358 0
-329 -359 0
-329 -360 0
-329 -361 0
-329 -362 0
-329 -363 0
-329 -364 0
-329 -365 0
-329 -366 0
-329 -367 0
-329 -368 0
-329 -369 0
-329 -370 0
-329 -371 0
-329 -372 0
-329 -373 0
-329 -374 0
-329 -375 0
-329 -376 0
-329 -377 0
-329 -378 0
-329 -379 0
-329 -380 0
-329 -381 0
-329 -382 0
-329 -383 0
-329 -384 0
-329 -385 0
-329 -386 0
-329 -387 0
-329 -388 0
-329 -389 0
-329 -390 0
-329 -391 0
-329 -392 0
-329 -393 0
-329 -394 0
-329 -395 0
-329 -396 0
-329 -397 0
-329 -398 0
-329 -399 0
-329 -400 0
-329 -401 0
-329 -402 0
-329 -403 0
-329 -404 0
-329 -405 0
-329 -406 0
-329 -407 0
-329 -408 0
-329 -409 0
-329 -410 0
-329 -411 0
-329 -412 0
-329 -413 0
-329 -414 0
-329 -415 0
-329 -416 0
-330 -331 0
-330 -332 0
-330 -333 0
-330 -334 0
-330 -335 0
-330 -336 0
-330 -337 0
-330 -338 0
-330 -339 0
-330 -340 0
-330 -341 0
-330 -342 0
-330 -343 0
-330 -344 0
-330 -345 0
-330 -346 0
-330 -347 0
-330 -348 0
-330 -349 0
-330 -350 0
-330 -351 0
-330 -352 0
-330 -353 0
-330 -354 0
-330 -355 0
-330 -356 0
-330 -357 0
-330 -358 0
-330 -359 0
-330 -360 0
-330 -361 0
-330 -362 0
-330 -363 0
-330 -364 0
-330 -365 0
-330 -366 0
-330 -367 0
-330 -368 0
-330 -369 0
-330 -370 0
-330 -371 0
-330 -372 0
-330 -373 0
-330 -374 0
-330 -375 0
-330 -376 0
-330 -377 0
-330 -378 0
-330 -379 0
-330 -380 0
-330 -381 0
-330 -382 0
-330 -383 0
-330 -384 0
-330 -385 0
-330 -386 0
-330 -387 0
-330 -388 0
-330 -389 0
-330 -390 0
-330 -391 0
-330 -392 0
-330 -393 0
-330 -394 0
-330 -395 0
-330 -396 0
-330 -397 0
-330 -398 0
-330 -399 0
-330 -400 0
-330 -401 0
-330 -402 0
-330 -403 0
-330 -404 0
-330 -405 0
-330 -406 0
-330 -407 0
-330 -408 0
-330 -409 0
-330 -410 0
-330 -411 0
-330 -412 0
-330 -413 0
-330 -414 0
-330 -415 0
-330 -416 0
-331 -332 0
-331 -333 0
-331 -334 0
-331 -335 0
-331 -336 0
-331 -337 0
-331 -338 0
-331 -339 0
-331 -340 0
-331 -341 0
-331 -342 0
-331 -343 0
-331 -344 0
-331 -345 0
-331 -346 0
-331 -347 0
-331 -348 0
-331 -349 0
-331 -350 0
-331 -351 0
-331 -352 0
-331 -353 0
-331 -354 0
-331 -355 0
-331 -356 0
-331 -357 0
-331 -358 0
-331 -359 0
-331 -360 0
-331 -361 0
-331 -362 0
-331 -363 0
-331 -364 0
-331 -365 0
-331 -366 0
-331 -367 0
-331 -368 0
-331 -369 0
-331 -370 0
-331 -371 0
-331 -372 0
-331 -373 0
-331 -374 0
-331 -375 0
-331 -376 0
-331 -377 0
-331 -378 0
-331 -379 0
-331 -380 0
-331 -381 0
-331 -382 0
-331 -383 0
-331 -384 0
-331 -385 0
-331 -386 0
-331 -387 0
-331 -388 0
-331 -389 0
-331 -390 0
-331 -391 0
-331 -392 0
-331 -393 0
-331 -394 0
-331 -395 0
-331 -396 0
-331 -397 0
-331 -398 0
-331 -399 0
-331 -400 0
-331 -401 0
-331 -402 0
-331 -403 0
-331 -404 0
-331 -405 0
-331 -406 0
-331 -407 0
-331 -408 0
-331 -409 0
-331 -410 0
-331 -411 0
-331 -412 0
-331 -413 0
-331 -414 0
-331 -415 0
-331 -416 0
-332 -333 0
-332 -334 0
-332 -335 0
-332 -336 0
-332 -337 0
-332 -338 0
-332 -339 0
-332 -340 0
-332 -341 0
-332 -342 0
-332 -343 0
-332 -344 0
-332 -345 0
-332 -346 0
-332 -347 0
-332 -348 0
-332 -349 0
-332 -350 0
-332 -351 0
-332 -352 0
-332 -353 0
-332 -354 0
-332 -355 0
-332 -356 0
-332 -357 0
-332 -358 0
-332 -359 0
-332 -360 0
-332 -361 0
-332 -362 0
-332 -363 0
-332 -364 0
-332 -365 0
-332 -366 0
-332 -367 0
-332 -368 0
-332 -369 0
-332 -370 0
-332 -371 0
-332 -372 0
-332 -373 0
-332 -374 0
-332 -375 0
-332 -376 0
-332 -377 0
-332 -378 0
-332 -379 0
-332 -380 0
-332 -381 0
-332 -382 0
-332 -383 0
-332 -384 0
-332 -385 0
-332 -386 0
-332 -387 0
-332 -388 0
-332 -389 0
-332 -390 0
-332 -391 0
-332 -392 0
-332 -393 0
-332 -394 0
-332 -395 0
-332 -396 0
-332 -397 0
-332 -398 0
-332 -399 0
-332 -400 0
-332 -401 0
-332 -402 0
-332 -403 0
-332 -404 0
-332 -405 0
-332 -406 0
-332 -407 0
-332 -408 0
-332 -409 0
-332 -410 0
-332 -411 0
-332 -412 0
-332 -413 0
-332 -414 0
-332 -415 0
-332 -416 0
-333 -334 0
-333 -335 0
-333 -336 0
-333 -337 0
-333 -338 0
-333 -339 0
-333 -340 0
-333 -341 0
-333 -342 0
-333 -343 0
-333 -344 0
-333 -345 0
-333 -346 0
-333 -347 0
-333 -348 0
-333 -349 0
-333 -350 0
-333 -351 0
-333 -352 0
-333 -353 0
-333 -354 0
-333 -355 0
-333 -356 0
-333 -357 0
-333 -358 0
-333 -359 0
-333 -360 0
-333 -361 0
-333 -362 0
-333 -363 0
-333 -364 0
-333 -365 0
-333 -366 0
-333 -367 0
-333 -368 0
-333 -369 0
-333 -370 0
-333 -371 0
-333 -372 0
-333 -373 0
-333 -374 0
-333 -375 0
-333 -376 0
-333 -377 0
-333 -378 0
-333 -379 0
-333 -380 0
-333 -381 0
-333 -382 0
-333 -383 0
-333 -384 0
-333 -385 0
-333 -386 0
-333 -387 0
-333 -388 0
-333 -389 0
-333 -390 0
-333 -391 0
-333 -392 0
-333 -393 0
-333 -394 0
-333 -395 0
-333 -396 0
-333 -397 0
-333 -398 0
-333 -399 0
-333 -400 0
-333 -401 0
-333 -402 0
-333 -403 0
-333 -404 0
-333 -405 0
-333 -406 0
-333 -407 0
-333 -408 0
-333 -409 0
-333 -410 0
-333 -411 0
-333 -412 0
-333 -413 0
-333 -414 0
-333 -415 0
-333 -416 0
-334 -335 0
-334 -336 0
-334 -337 0
-334 -338 0
-334 -339 0
-334 -340 0
-334 -341 0
-334 -342 0
-334 -343 0
-334 -344 0
-334 -345 0
-334 -346 0
-334 -347 0
-334 -348 0
-334 -349 0
-334 -350 0
-334 -351 0
-334 -352 0
-334 -353 0
-334 -354 0
-334 -355 0
-334 -356 0
-334 -357 0
-334 -358 0
-334 -359 0
-334 -360 0
-334 -361 0
-334 -362 0
-334 -363 0
-334 -364 0
-334 -365 0
-334 -366 0
-334 -367 0
-334 -368 0
-334 -369 0
-334 -370 0
-334 -371 0
-334 -372 0
-334 -373 0
-334 -374 0
-334 -375 0
-334 -376 0
-334 -377 0
-334 -378 0
-334 -379 0
-334 -380 0
-334 -381 0
-334 -382 0
-334 -383 0
-334 -384 0
-334 -385 0
-334 -386 0
-334 -387 0
-334 -388 0
-334 -389 0
-334 -390 0
-334 -391 0
-334 -392 0
-334 -393 0
-334 -394 0
-334 -395 0
-334 -396 0
-334 -397 0
-334 -398 0
-334 -399 0
-334 -400 0
-334 -401 0
-334 -402 0
-334 -403 0
-334 -404 0
-334 -405 0
-334 -406 0
-334 -407 0
-334 -408 0
-334 -409 0
-334 -410 0
-334 -411 0
-334 -412 0
-334 -413 0
-334 -414 0
-334 -415 0
-334 -416 0
-335 -336 0
-335 -337 0
-335 -338 0
-335 -339 0
-335 -340 0
-335 -341 0
-335 -342 0
-335 -343 0
-335 -344 0
-335 -345 0
-335 -346 0
-335 -347 0
-335 -348 0
-335 -349 0
-335 -350 0
-335 -351 0
-335 -352 0
-335 -353 0
-335 -354 0
-335 -355 0
-335 -356 0
-335 -357 0
-335 -358 0
-335 -359 0
-335 -360 0
-335 -361 0
-335 -362 0
-335 -363 0
-335 -364 0
-335 -365 0
-335 -366 0
-335 -367 0
-335 -368 0
-335 -369 0
-335 -370 0
-335 -371 0
-335 -372 0
-335 -373 0
-335 -374 0
-335 -375 0
-335 -376 0
-335 -377 0
-335 -378 0
-335 -379 0
-335 -380 0
-335 -381 0
-335 -382 0
-335 -383 0
-335 -384 0
-335 -385 0
-335 -386 0
-335 -387 0
-335 -388 0
-335 -389 0
-335 -390 0
-335 -391 0
-335 -392 0
-335 -393 0
-335 -394 0
-335 -395 0
-335 -396 0
-335 -397 0
-335 -398 0
-335 -399 0
-335 -400 0
-335 -401 0
-335 -402 0
-335 -403 0
-335 -404 0
-335 -405 0
-335 -406 0
-335 -407 0
-335 -408 0
-335 -409 0
-335 -410 0
-335 -411 0
-335 -412 0
-335 -413 0
-335 -414 0
-335 -415 0
-335 -416 0
-336 -337 0
-336 -338 0
-336 -339 0
-336 -340 0
-336 -341 0
-336 -342 0
-336 -343 0
-336 -344 0
-336 -345 0
-336 -346 0
-336 -347 0
-336 -348 0
-336 -349 0
-336 -350 0
-336 -351 0
-336 -352 0
-336 -353 0
-336 -354 0
-336 -355 0
-336 -356 0
-336 -357 0
-336 -358 0
-336 -359 0
-336 -360 0
-336 -361 0
-336 -362 0
-336 -363 0
-336 -364 0
-336 -365 0
-336 -366 0
-336 -367 0
-336 -368 0
-336 -369 0
-336 -370 0
-336 -371 0
-336 -372 0
-336 -373 0
-336 -374 0
-336 -375 0
-336 -376 0
-336 -377 0
-336 -378 0
-336 -379 0
-336 -380 0
-336 -381 0
-336 -382 0
-336 -383 0
-336 -384 0
-336 -385 0
-336 -386 0
-336 -387 0
-336 -388 0
-336 -389 0
-336 -390 0
-336 -391 0
-336 -392 0
-336 -393 0
-336 -394 0
-336 -395 0
-336 -396 0
-336 -397 0
-336 -398 0
-336 -399 0
-336 -400 0
-336 -401 0
-336 -402 0
-336 -403 0
-336 -404 0
-336 -405 0
-336 -406 0
-336 -407 0
-336 -408 0
-336 -409 0
-336 -410 0
-336 -411 0
-336 -412 0
-336 -413 0
-336 -414 0
-336 -415 0
-336 -416 0
-337 -338 0
-337 -339 0
-337 -340 0
-337 -341 0
-337 -342 0
-337 -343 0
-337 -344 0
-337 -345 0
-337 -346 0
-337 -347 0
-337 -348 0
-337 -349 0
-337 -350 0
-337 -351 0
-337 -352 0
-337 -353 0
-337 -354 0
-337 -355 0
-337 -356 0
-337 -357 0
-337 -358 0
-337 -359 0
-337 -360 0
-337 -361 0
-337 -362 0
-337 -363 0
-337 -364 0
-337 -365 0
-337 -366 0
-337 -367 0
-337 -368 0
-337 -369 0
-337 -370 0
-337 -371 0
-337 -372 0
-337 -373 0
-337 -374 0
-337 -375 0
-337 -376 0
-337 -377 0
-337 -378 0
-337 -379 0
-337 -380 0
-337 -381 0
-337 -382 0
-337 -383 0
-337 -384 0
-337 -385 0
-337 -386 0
-337 -387 0
-337 -388 0
-337 -389 0
-337 -390 0
-337 -391 0
-337 -392 0
-337 -393 0
-337 -394 0
-337 -395 0
-337 -396 0
-337 -397 0
-337 -398 0
-337 -399 0
-337 -400 0
-337 -401 0
-337 -402 0
-337 -403 0
-337 -404 0
-337 -405 0
-337 -406 0
-337 -407 0
-337 -408 0
-337 -409 0
-337 -410 0
-337 -411 0
-337 -412 0
-337 -413 0
-337 -414 0
-337 -415 0
-337 -416 0
-338 -339 0
-338 -340 0
-338 -341 0
-338 -342 0
-338 -343 0
-338 -344 0
-338 -345 0
-338 -346 0
-338 -347 0
-338 -348 0
-338 -349 0
-338 -350 0
-338 -351 0
-338 -352 0
-338 -353 0
-338 -354 0
-338 -355 0
-338 -356 0
-338 -357 0
-338 -358 0
-338 -359 0
-338 -360 0
-338 -361 0
-338 -362 0
-338 -363 0
-338 -364 0
-338 -365 0
-338 -366 0
-338 -367 0
-338 -368 0
-338 -369 0
-338 -370 0
-338 -371 0
-338 -372 0
-338 -373 0
-338 -374 0
-338 -375 0
-338 -376 0
-338 -377 0
-338 -378 0
-338 -379 0
-338 -380 0
-338 -381 0
-338 -382 0
-338 -383 0
-338 -384 0
-338 -385 0
-338 -386 0
-338 -387 0
-338 -388 0
-338 -389 0
-338 -390 0
-338 -391 0
-338 -392 0
-338 -393 0
-338 -394 0
-338 -395 0
-338 -396 0
-338 -397 0
-338 -398 0
-338 -399 0
-338 -400 0
-338 -401 0
-338 -402 0
-338 -403 0
-338 -404 0
-338 -405 0
-338 -406 0
-338 -407 0
-338 -408 0
-338 -409 0
-338 -410 0
-338 -411 0
-338 -412 0
-338 -413 0
-338 -414 0
-338 -415 0
-338 -416 0
-339 -340 0
-339 -341 0
-339 -342 0
-339 -343 0
-339 -344 0
-339 -345 0
-339 -346 0
-339 -347 0
-339 -348 0
-339 -349 0
-339 -350 0
-339 -351 0
-339 -352 0
-339 -353 0
-339 -354 0
-339 -355 0
-339 -356 0
-339 -357 0
-339 -358 0
-339 -359 0
-339 -360 0
-339 -361 0
-339 -362 0
-339 -363 0
-339 -364 0
-339 -365 0
-339 -366 0
-339 -367 0
-339 -368 0
-339 -369 0
-339 -370 0
-339 -371 0
-339 -372 0
-339 -373 0
-339 -374 0
-339 -375 0
-339 -376 0
-339 -377 0
-339 -378 0
-339 -379 0
-339 -380 0
-339 -381 0
-339 -382 0
-339 -383 0
-339 -384 0
-339 -385 0
-339 -386 0
-339 -387 0
-339 -388 0
-339 -389 0
-339 -390 0
-339 -391 0
-339 -392 0
-339 -393 0
-339 -394 0
-339 -395 0
-339 -396 0
-339 -397 0
-339 -398 0
-339 -399 0
-339 -400 0
-339 -401 0
-339 -402 0
-339 -403 0
-339 -404 0
-339 -405 0
-339 -406 0
-339 -407 0
-339 -408 0
-339 -409 0
-339 -410 0
-339 -411 0
-339 -412 0
-339 -413 0
-339 -414 0
-339 -415 0
-339 -416 0
-340 -341 0
-340 -342 0
-340 -343 0
-340 -344 0
-340 -345 0
-340 -346 0
-340 -347 0
-340 -348 0
-340 -349 0
-340 -350 0
-340 -351 0
-340 -352 0
-340 -353 0
-340 -354 0
-340 -355 0
-340 -356 0
-340 -357 0
-340 -358 0
-340 -359 0
-340 -360 0
-340 -361 0
-340 -362 0
-340 -363 0
-340 -364 0
-340 -365 0
-340 -366 0
-340 -367 0
-340 -368 0
-340 -369 0
-340 -370 0
-340 -371 0
-340 -372 0
-340 -373 0
-340 -374 0
-340 -375 0
-340 -376 0
-340 -377 0
-340 -378 0
-340 -379 0
-340 -380 0
-340 -381 0
-340 -382 0
-340 -383 0
-340 -384 0
-340 -385 0
-340 -386 0
-340 -387 0
-340 -388 0
-340 -389 0
-340 -390 0
-340 -391 0
-340 -392 0
-340 -393 0
-340 -394 0
-340 -395 0
-340 -396 0
-340 -397 0
-340 -398 0
-340 -399 0
-340 -400 0
-340 -401 0
-340 -402 0
-340 -403 0
-340 -404 0
-340 -405 0
-340 -406 0
-340 -407 0
-340 -408 0
-340 -409 0
-340 -410 0
-340 -411 0
-340 -412 0
-340 -413 0
-340 -414 0
-340 -415 0
-340 -416 0
-341 -342 0
-341 -343 0
-341 -344 0
-341 -345 0
-341 -346 0
-341 -347 0
-341 -348 0
-341 -349 0
-341 -350 0
-341 -351 0
-341 -352 0
-341 -353 0
-341 -354 0
-341 -355 0
-341 -356 0
-341 -357 0
-341 -358 0
-341 -359 0
-341 -360 0
-341 -361 0
-341 -362 0
-341 -363 0
-341 -364 0
-341 -365 0
-341 -366 0
-341 -367 0
-341 -368 0
-341 -369 0
-341 -370 0
-341 -371 0
-341 -372 0
-341 -373 0
-341 -374 0
-341 -375 0
-341 -376 0
-341 -377 0
-341 -378 0
-341 -379 0
-341 -380 0
-341 -381 0
-341 -382 0
-341 -383 0
-341 -384 0
-341 -385 0
-341 -386 0
-341 -387 0
-341 -388 0
-341 -389 0
-341 -390 0
-341 -391 0
-341 -392 0
-341 -393 0
-341 -394 0
-341 -395 0
-341 -396 0
-341 -397 0
-341 -398 0
-341 -399 0
-341 -400 0
-341 -401 0
-341 -402 0
-341 -403 0
-341 -404 0
-341 -405 0
-341 -406 0
-341 -407 0
-341 -408 0
-341 -409 0
-341 -410 0
-341 -411 0
-341 -412 0
-341 -413 0
-341 -414 0
-341 -415 0
-341 -416 0
-342 -343 0
-342 -344 0
-342 -345 0
-342 -346 0
-342 -347 0
-342 -348 0
-342 -349 0
-342 -350 0
-342 -351 0
-342 -352 0
-342 -353 0
-342 -354 0
-342 -355 0
-342 -356 0
-342 -357 0
-342 -358 0
-342 -359 0
-342 -360 0
-342 -361 0
-342 -362 0
-342 -363 0
-342 -364 0
-342 -365 0
-342 -366 0
-342 -367 0
-342 -368 0
-342 -369 0
-342 -370 0
-342 -371 0
-342 -372 0
-342 -373 0
-342 -374 0
-342 -375 0
-342 -376 0
-342 -377 0
-342 -378 0
-342 -379 0
-342 -380 0
-342 -381 0
-342 -382 0
-342 -383 0
-342 -384 0
-342 -385 0
-342 -386 0
-342 -387 0
-342 -388 0
-342 -389 0
-342 -390 0
-342 -391 0
-342 -392 0
-342 -393 0
-342 -394 0
-342 -395 0
-342 -396 0
-342 -397 0
-342 -398 0
-342 -399 0
-342 -400 0
-342 -401 0
-342 -402 0
-342 -403 0
-342 -404 0
-342 -405 0
-342 -406 0
-342 -407 0
-342 -408 0
-342 -409 0
-342 -410 0
-342 -411 0
-342 -412 0
-342 -413 0
-342 -414 0
-342 -415 0
-342 -416 0
-343 -344 0
-343 -345 0
-343 -346 0
-343 -347 0
-343 -348 0
-343 -349 0
-343 -350 0
-343 -351 0
-343 -352 0
-343 -353 0
-343 -354 0
-343 -355 0
-343 -356 0
-343 -357 0
-343 -358 0
-343 -359 0
-343 -360 0
-343 -361 0
-343 -362 0
-343 -363 0
-343 -364 0
-343 -365 0
-343 -366 0
-343 -367 0
-343 -368 0
-343 -369 0
-343 -370 0
-343 -371 0
-343 -372 0
-343 -373 0
-343 -374 0
-343 -375 0
-343 -376 0
-343 -377 0
-343 -378 0
-343 -379 0
-343 -380 0
-343 -381 0
-343 -382 0
-343 -383 0
-343 -384 0
-343 -385 0
-343 -386 0
-343 -387 0
-343 -388 0
-343 -389 0
-343 -390 0
-343 -391 0
-343 -392 0
-343 -393 0
-343 -394 0
-343 -395 0
-343 -396 0
-343 -397 0
-343 -398 0
-343 -399 0
-343 -400 0
-343 -401 0
-343 -402 0
-343 -403 0
-343 -404 0
-343 -405 0
-343 -406 0
-343 -407 0
-343 -408 0
-343 -409 0
-343 -410 0
-343 -411 0
-343 -412 0
-343 -413 0
-343 -414 0
-343 -415 0
-343 -416 0
-344 -345 0
-344 -346 0
-344 -347 0
-344 -348 0
-344 -349 0
-344 -350 0
-344 -351 0
-344 -352 0
-344 -353 0
-344 -354 0
-344 -355 0
-344 -356 0
-344 -357 0
-344 -358 0
-344 -359 0
-344 -360 0
-344 -361 0
-344 -362 0
-344 -363 0
-344 -364 0
-344 -365 0
-344 -366 0
-344 -367 0
-344 -368 0
-344 -369 0
-344 -370 0
-344 -371 0
-344 -372 0
-344 -373 0
-344 -374 0
-344 -375 0
-344 -376 0
-344 -377 0
-344 -378 0
-344 -379 0
-344 -380 0
-344 -381 0
-344 -382 0
-344 -383 0
-344 -384 0
-344 -385 0
-344 -386 0
-344 -387 0
-344 -388 0
-344 -389 0
-344 -390 0
-344 -391 0
-344 -392 0
-344 -393 0
-344 -394 0
-344 -395 0
-344 -396 0
-344 -397 0
-344 -398 0
-344 -399 0
-344 -400 0
-344 -401 0
-344 -402 0
-344 -403 0
-344 -404 0
-344 -405 0
-344 -406 0
-344 -407 0
-344 -408 0
-344 -409 0
-344 -410 0
-344 -411 0
-344 -412 0
-344 -413 0
-344 -414 0
-344 -415 0
-344 -416 0
-345 -346 0
-345 -347 0
-345 -348 0
-345 -349 0
-345 -350 0
-345 -351 0
-345 -352 0
-345 -353 0
-345 -354 0
-345 -355 0
-345 -356 0
-345 -357 0
-345 -358 0
-345 -359 0
-345 -360 0
-345 -361 0
-345 -362 0
-345 -363 0
-345 -364 0
-345 -365 0
-345 -366 0
-345 -367 0
-345 -368 0
-345 -369 0
-345 -370 0
-345 -371 0
-345 -372 0
-345 -373 0
-345 -374 0
-345 -375 0
-345 -376 0
-345 -377 0
-345 -378 0
-345 -379 0
-345 -380 0
-345 -381 0
-345 -382 0
-345 -383 0
-345 -384 0
-345 -385 0
-345 -386 0
-345 -387 0
-345 -388 0
-345 -389 0
-345 -390 0
-345 -391 0
-345 -392 0
-345 -393 0
-345 -394 0
-345 -395 0
-345 -396 0
-345 -397 0
-345 -398 0
-345 -399 0
-345 -400 0
-345 -401 0
-345 -402 0
-345 -403 0
-345 -404 0
-345 -405 0
-345 -406 0
-345 -407 0
-345 -408 0
-345 -409 0
-345 -410 0
-345 -411 0
-345 -412 0
-345 -413 0
-345 -414 0
-345 -415 0
-345 -416 0
-346 -347 0
-346 -348 0
-346 -349 0
-346 -350 0
-346 -351 0
-346 -352 0
-346 -353 0
-346 -354 0
-346 -355 0
-346 -356 0
-346 -357 0
-346 -358 0
-346 -359 0
-346 -360 0
-346 -361 0
-346 -362 0
-346 -363 0
-346 -364 0
-346 -365 0
-346 -366 0
-346 -367 0
-346 -368 0
-346 -369 0
-346 -370 0
-346 -371 0
-346 -372 0
-346 -373 0
-346 -374 0
-346 -375 0
-346 -376 0
-346 -377 0
-346 -378 0
-346 -379 0
-346 -380 0
-346 -381 0
-346 -382 0
-346 -383 0
-346 -384 0
-346 -385 0
-346 -386 0
-346 -387 0
-346 -388 0
-346 -389 0
-346 -390 0
-346 -391 0
-346 -392 0
-346 -393 0
-346 -394 0
-346 -395 0
-346 -396 0
-346 -397 0
-346 -398 0
-346 -399 0
-346 -400 0
-346 -401 0
-346 -402 0
-346 -403 0
-346 -404 0
-346 -405 0
-346 -406 0
-346 -407 0
-346 -408 0
-346 -409 0
-346 -410 0
-346 -411 0
-346 -412 0
-346 -413 0
-346 -414 0
-346 -415 0
-346 -416 0
-347 -348 0
-347 -349 0
-347 -350 0
-347 -351 0
-347 -352 0
-347 -353 0
-347 -354 0
-347 -355 0
-347 -356 0
-347 -357 0
-347 -358 0
-347 -359 0
-347 -360 0
-347 -361 0
-347 -362 0
-347 -363 0
-347 -364 0
-347 -365 0
-347 -366 0
-347 -367 0
-347 -368 0
-347 -369 0
-347 -370 0
-347 -371 0
-347 -372 0
-347 -373 0
-347 -374 0
-347 -375 0
-347 -376 0
-347 -377 0
-347 -378 0
-347 -379 0
-347 -380 0
-347 -381 0
-347 -382 0
-347 -383 0
-347 -384 0
-347 -385 0
-347 -386 0
-347 -387 0
-347 -388 0
-347 -389 0
-347 -390 0
-347 -391 0
-347 -392 0
-347 -393 0
-347 -394 0
-347 -395 0
-347 -396 0
-347 -397 0
-347 -398 0
-347 -399 0
-347 -400 0
-347 -401 0
-347 -402 0
-347 -403 0
-347 -404 0
-347 -405 0
-347 -406 0
-347 -407 0
-347 -408 0
-347 -409 0
-347 -410 0
-347 -411 0
-347 -412 0
-347 -413 0
-347 -414 0
-347 -415 0
-347 -416 0
-348 -349 0
-348 -350 0
-348 -351 0
-348 -352 0
-348 -353 0
-348 -354 0
-348 -355 0
-348 -356 0
-348 -357 0
-348 -358 0
-348 -359 0
-348 -360 0
-348 -361 0
-348 -362 0
-348 -363 0
-348 -364 0
-348 -365 0
-348 -366 0
-348 -367 0
-348 -368 0
-348 -369 0
-348 -370 0
-348 -371 0
-348 -372 0
-348 -373 0
-348 -374 0
-348 -375 0
-348 -376 0
-348 -377 0
-348 -378 0
-348 -379 0
-348 -380 0
-348 -381 0
-348 -382 0
-348 -383 0
-348 -384 0
-348 -385 0
-348 -386 0
-348 -387 0
-348 -388 0
-348 -389 0
-348 -390 0
-348 -391 0
-348 -392 0
-348 -393 0
-348 -394 0
-348 -395 0
-348 -396 0
-348 -397 0
-348 -398 0
-348 -399 0
-348 -400 0
-348 -401 0
-348 -402 0
-348 -403 0
-348 -404 0
-348 -405 0
-348 -406 0
-348 -407 0
-348 -408 0
-348 -409 0
-348 -410 0
-348 -411 0
-348 -412 0
-348 -413 0
-348 -414 0
-348 -415 0
-348 -416 0
-349 -350 0
-349 -351 0
-349 -352 0
-349 -353 0
-349 -354 0
-349 -355 0
-349 -356 0
-349 -357 0
-349 -358 0
-349 -359 0
-349 -360 0
-349 -361 0
-349 -362 0
-349 -363 0
-349 -364 0
-349 -365 0
-349 -366 0
-349 -367 0
-349 -368 0
-349 -369 0
-349 -370 0
-349 -371 0
-349 -372 0
-349 -373 0
-349 -374 0
-349 -375 0
-349 -376 0
-349 -377 0
-349 -378 0
-349 -379 0
-349 -380 0
-349 -381 0
-349 -382 0
-349 -383 0
-349 -384 0
-349 -385 0
-349 -386 0
-349 -387 0
-349 -388 0
-349 -389 0
-349 -390 0
-349 -391 0
-349 -392 0
-349 -393 0
-349 -394 0
-349 -395 0
-349 -396 0
-349 -397 0
-349 -398 0
-349 -399 0
-349 -400 0
-349 -401 0
-349 -402 0
-349 -403 0
-349 -404 0
-349 -405 0
-349 -406 0
-349 -407 0
-349 -408 0
-349 -409 0
-349 -410 0
-349 -411 0
-349 -412 0
-349 -413 0
-349 -414 0
-349 -415 0
-349 -416 0
-350 -351 0
-350 -352 0
-350 -353 0
-350 -354 0
-350 -355 0
-350 -356 0
-350 -357 0
-350 -358 0
-350 -359 0
-350 -360 0
-350 -361 0
-350 -362 0
-350 -363 0
-350 -364 0
-350 -365 0
-350 -366 0
-350 -367 0
-350 -368 0
-350 -369 0
-350 -370 0
-350 -371 0
-350 -372 0
-350 -373 0
-350 -374 0
-350 -375 0
-350 -376 0
-350 -377 0
-350 -378 0
-350 -379 0
-350 -380 0
-350 -381 0
-350 -382 0
-350 -383 0
-350 -384 0
-350 -385 0
-350 -386 0
-350 -387 0
-350 -388 0
-350 -389 0
-350 -390 0
-350 -391 0
-350 -392 0
-350 -393 0
-350 -394 0
-350 -395 0
-350 -396 0
-350 -397 0
-350 -398 0
-350 -399 0
-350 -400 0
-350 -401 0
-350 -402 0
-350 -403 0
-350 -404 0
-350 -405 0
-350 -406 0
-350 -407 0
-350 -408 0
-350 -409 0
-350 -410 0
-350 -411 0
-350 -412 0
-350 -413 0
-350 -414 0
-350 -415 0
-350 -416 0
-351 -352 0
-351 -353 0
-351 -354 0
-351 -355 0
-351 -356 0
-351 -357 0
-351 -358 0
-351 -359 0
-351 -360 0
-351 -361 0
-351 -362 0
-351 -363 0
-351 -364 0
-351 -365 0
-351 -366 0
-351 -367 0
-351 -368 0
-351 -369 0
-351 -370 0
-351 -371 0
-351 -372 0
-351 -373 0
-351 -374 0
-351 -375 0
-351 -376 0
-351 -377 0
-351 -378 0
-351 -379 0
-351 -380 0
-351 -381 0
-351 -382 0
-351 -383 0
-351 -384 0
-351 -385 0
-351 -386 0
-351 -387 0
-351 -388 0
-351 -389 0
-351 -390 0
-351 -391 0
-351 -392 0
-351 -393 0
-351 -394 0
-351 -395 0
-351 -396 0
-351 -397 0
-351 -398 0
-351 -399 0
-351 -400 0
-351 -401 0
-351 -402 0
-351 -403 0
-351 -404 0
-351 -405 0
-351 -406 0
-351 -407 0
-351 -408 0
-351 -409 0
-351 -410 0
-351 -411 0
-351 -412 0
-351 -413 0
-351 -414 0
-351 -415 0
-351 -416 0
-352 -353 0
-352 -354 0
-352 -355 0
-352 -356 0
-352 -357 0
-352 -358 0
-352 -359 0
-352 -360 0
-352 -361 0
-352 -362 0
-352 -363 0
-352 -364 0
-352 -365 0
-352 -366 0
-352 -367 0
-352 -368 0
-352 -369 0
-352 -370 0
-352 -371 0
-352 -372 0
-352 -373 0
-352 -374 0
-352 -375 0
-352 -376 0
-352 -377 0
-352 -378 0
-352 -379 0
-352 -380 0
-352 -381 0
-352 -382 0
-352 -383 0
-352 -384 0
-352 -385 0
-352 -386 0
-352 -387 0
-352 -388 0
-352 -389 0
-352 -390 0
-352 -391 0
-352 -392 0
-352 -393 0
-352 -394 0
-352 -395 0
-352 -396 0
-352 -397 0
-352 -398 0
-352 -399 0
-352 -400 0
-352 -401 0
-352 -402 0
-352 -403 0
-352 -404 0
-352 -405 0
-352 -406 0
-352 -407 0
-352 -408 0
-352 -409 0
-352 -410 0
-352 -411 0
-352 -412 0
-352 -413 0
-352 -414 0
-352 -415 0
-352 -416 0
-353 -354 0
-353 -355 0
-353 -356 0
-353 -357 0
-353 -358 0
-353 -359 0
-353 -360 0
-353 -361 0
-353 -362 0
-353 -363 0
-353 -364 0
-353 -365 0
-353 -366 0
-353 -367 0
-353 -368 0
-353 -369 0
-353 -370 0
-353 -371 0
-353 -372 0
-353 -373 0
-353 -374 0
-353 -375 0
-353 -376 0
-353 -377 0
-353 -378 0
-353 -379 0
-353 -380 0
-353 -381 0
-353 -382 0
-353 -383 0
-353 -384 0
-353 -385 0
-353 -386 0
-353 -387 0
-353 -388 0
-353 -389 0
-353 -390 0
-353 -391 0
-353 -392 0
-353 -393 0
-353 -394 0
-353 -395 0
-353 -396 0
-353 -397 0
-353 -398 0
-353 -399 0
-353 -400 0
-353 -401 0
-353 -402 0
-353 -403 0
-353 -404 0
-353 -405 0
-353 -406 0
-353 -407 0
-353 -408 0
-353 -409 0
-353 -410 0
-353 -411 0
-353 -412 0
-353 -413 0
-353 -414 0
-353 -415 0
-353 -416 0
-354 -355 0
-354 -356 0
-354 -357 0
-354 -358 0
-354 -359 0
-354 -360 0
-354 -361 0
-354 -362 0
-354 -363 0
-354 -364 0
-354 -365 0
-354 -366 0
-354 -367 0
-354 -368 0
-354 -369 0
-354 -370 0
-354 -371 0
-354 -372 0
-354 -373 0
-354 -374 0
-354 -375 0
-354 -376 0
-354 -377 0
-354 -378 0
-354 -379 0
-354 -380 0
-354 -381 0
-354 -382 0
-354 -383 0
-354 -384 0
-354 -385 0
-354 -386 0
-354 -387 0
-354 -388 0
-354 -389 0
-354 -390 0
-354 -391 0
-354 -392 0
-354 -393 0
-354 -394 0
-354 -395 0
-354 -396 0
-354 -397 0
-354 -398 0
-354 -399 0
-354 -400 0
-354 -401 0
-354 -402 0
-354 -403 0
-354 -404 0
-354 -405 0
-354 -406 0
-354 -407 0
-354 -408 0
-354 -409 0
-354 -410 0
-354 -411 0
-354 -412 0
-354 -413 0
-354 -414 0
-354 -415 0
-354 -416 0
-355 -356 0
-355 -357 0
-355 -358 0
-355 -359 0
-355 -360 0
-355 -361 0
-355 -362 0
-355 -363 0
-355 -364 0
-355 -365 0
-355 -366 0
-355 -367 0
-355 -368 0
-355 -369 0
-355 -370 0
-355 -371 0
-355 -372 0
-355 -373 0
-355 -374 0
-355 -375 0
-355 -376 0
-355 -377 0
-355 -378 0
-355 -379 0
-355 -380 0
-355 -381 0
-355 -382 0
-355 -383 0
-355 -384 0
-355 -385 0
-355 -386 0
-355 -387 0
-355 -388 0
-355 -389 0
-355 -390 0
-355 -391 0
-355 -392 0
-355 -393 0
-355 -394 0
-355 -395 0
-355 -396 0
-355 -397 0
-355 -398 0
-355 -399 0
-355 -400 0
-355 -401 0
-355 -402 0
-355 -403 0
-355 -404 0
-355 -405 0
-355 -406 0
-355 -407 0
-355 -408 0
-355 -409 0
-355 -410 0
-355 -411 0
-355 -412 0
-355 -413 0
-355 -414 0
-355 -415 0
-355 -416 0
-356 -357 0
-356 -358 0
-356 -359 0
-356 -360 0
-356 -361 0
-356 -362 0
-356 -363 0
-356 -364 0
-356 -365 0
-356 -366 0
-356 -367 0
-356 -368 0
-356 -369 0
-356 -370 0
-356 -371 0
-356 -372 0
-356 -373 0
-356 -374 0
-356 -375 0
-356 -376 0
-356 -377 0
-356 -378 0
-356 -379 0
-356 -380 0
-356 -381 0
-356 -382 0
-356 -383 0
-356 -384 0
-356 -385 0
-356 -386 0
-356 -387 0
-356 -388 0
-356 -389 0
-356 -390 0
-356 -391 0
-356 -392 0
-356 -393 0
-356 -394 0
-356 -395 0
-356 -396 0
-356 -397 0
-356 -398 0
-356 -399 0
-356 -400 0
-356 -401 0
-356 -402 0
-356 -403 0
-356 -404 0
-356 -405 0
-356 -406 0
-356 -407 0
-356 -408 0
-356 -409 0
-356 -410 0
-356 -411 0
-356 -412 0
-356 -413 0
-356 -414 0
-356 -415 0
-356 -416 0
-357 -358 0
-357 -359 0
-357 -360 0
-357 -361 0
-357 -362 0
-357 -363 0
-357 -364 0
-357 -365 0
-357 -366 0
-357 -367 0
-357 -368 0
-357 -369 0
-357 -370 0
-357 -371 0
-357 -372 0
-357 -373 0
-357 -374 0
-357 -375 0
-357 -376 0
-357 -377 0
-357 -378 0
-357 -379 0
-357 -380 0
-357 -381 0
-357 -382 0
-357 -383 0
-357 -384 0
-357 -385 0
-357 -386 0
-357 -387 0
-357 -388 0
-357 -389 0
-357 -390 0
-357 -391 0
-357 -392 0
-357 -393 0
-357 -394 0
-357 -395 0
-357 -396 0
-357 -397 0
-357 -398 0
-357 -399 0
-357 -400 0
-357 -401 0
-357 -402 0
-357 -403 0
-357 -404 0
-357 -405 0
-357 -406 0
-357 -407 0
-357 -408 0
-357 -409 0
-357 -410 0
-357 -411 0
-357 -412 0
-357 -413 0
-357 -414 0
-357 -415 0
-357 -416 0
-358 -359 0
-358 -360 0
-358 -361 0
-358 -362 0
-358 -363 0
-358 -364 0
-358 -365 0
-358 -366 0
-358 -367 0
-358 -368 0
-358 -369 0
-358 -370 0
-358 -371 0
-358 -372 0
-358 -373 0
-358 -374 0
-358 -375 0
-358 -376 0
-358 -377 0
-358 -378 0
-358 -379 0
-358 -380 0
-358 -381 0
-358 -382 0
-358 -383 0
-358 -384 0
-358 -385 0
-358 -386 0
-358 -387 0
-358 -388 0
-358 -389 0
-358 -390 0
-358 -391 0
-358 -392 0
-358 -393 0
-358 -394 0
-358 -395 0
-358 -396 0
-358 -397 0
-358 -398 0
-358 -399 0
-358 -400 0
-358 -401 0
-358 -402 0
-358 -403 0
-358 -404 0
-358 -405 0
-358 -406 0
-358 -407 0
-358 -408 0
-358 -409 0
-358 -410 0
-358 -411 0
-358 -412 0
-358 -413 0
-358 -414 0
-358 -415 0
-358 -416 0
-359 -360 0
-359 -361 0
-359 -362 0
-359 -363 0
-359 -364 0
-359 -365 0
-359 -366 0
-359 -367 0
-359 -368 0
-359 -369 0
-359 -370 0
-359 -371 0
-359 -372 0
-359 -373 0
-359 -374 0
-359 -375 0
-359 -376 0
-359 -377 0
-359 -378 0
-359 -379 0
-359 -380 0
-359 -381 0
-359 -382 0
-359 -383 0
-359 -384 0
-359 -385 0
-359 -386 0
-359 -387 0
-359 -388 0
-359 -389 0
-359 -390 0
-359 -391 0
-359 -392 0
-359 -393 0
-359 -394 0
-359 -395 0
-359 -396 0
-359 -397 0
-359 -398 0
-359 -399 0
-359 -400 0
-359 -401 0
-359 -402 0
-359 -403 0
-359 -404 0
-359 -405 0
-359 -406 0
-359 -407 0
-359 -408 0
-359 -409 0
-359 -410 0
-359 -411 0
-359 -412 0
-359 -413 0
-359 -414 0
-359 -415 0
-359 -416 0
-360 -361 0
-360 -362 0
-360 -363 0
-360 -364 0
-360 -365 0
-360 -366 0
-360 -367 0
-360 -368 0
-360 -369 0
-360 -370 0
-360 -371 0
-360 -372 0
-360 -373 0
-360 -374 0
-360 -375 0
-360 -376 0
-360 -377 0
-360 -378 0
-360 -379 0
-360 -380 0
-360 -381 0
-360 -382 0
-360 -383 0
-360 -384 0
-360 -385 0
-360 -386 0
-360 -387 0
-360 -388 0
-360 -389 0
-360 -390 0
-360 -391 0
-360 -392 0
-360 -393 0
-360 -394 0
-360 -395 0
-360 -396 0
-360 -397 0
-360 -398 0
-360 -399 0
-360 -400 0
-360 -401 0
-360 -402 0
-360 -403 0
-360 -404 0
-360 -405 0
-360 -406 0
-360 -407 0
-360 -408 0
-360 -409 0
-360 -410 0
-360 -411 0
-360 -412 0
-360 -413 0
-360 -414 0
-360 -415 0
-360 -416 0
-361 -362 0
-361 -363 0
-361 -364 0
-361 -365 0
-361 -366 0
-361 -367 0
-361 -368 0
-361 -369 0
-361 -370 0
-361 -371 0
-361 -372 0
-361 -373 0
-361 -374 0
-361 -375 0
-361 -376 0
-361 -377 0
-361 -378 0
-361 -379 0
-361 -380 0
-361 -381 0
-361 -382 0
-361 -383 0
-361 -384 0
-361 -385 0
-361 -386 0
-361 -387 0
-361 -388 0
-361 -389 0
-361 -390 0
-361 -391 0
-361 -392 0
-361 -393 0
-361 -394 0
-361 -395 0
-361 -396 0
-361 -397 0
-361 -398 0
-361 -399 0
-361 -400 0
-361 -401 0
-361 -402 0
-361 -403 0
-361 -404 0
-361 -405 0
-361 -406 0
-361 -407 0
-361 -408 0
-361 -409 0
-361 -410 0
-361 -411 0
-361 -412 0
-361 -413 0
-361 -414 0
-361 -415 0
-361 -416 0
-362 -363 0
-362 -364 0
-362 -365 0
-362 -366 0
-362 -367 0
-362 -368 0
-362 -369 0
-362 -370 0
-362 -371 0
-362 -372 0
-362 -373 0
-362 -374 0
-362 -375 0
-362 -376 0
-362 -377 0
-362 -378 0
-362 -379 0
-362 -380 0
-362 -381 0
-362 -382 0
-362 -383 0
-362 -384 0
-362 -385 0
-362 -386 0
-362 -387 0
-362 -388 0
-362 -389 0
-362 -390 0
-362 -391 0
-362 -392 0
-362 -393 0
-362 -394 0
-362 -395 0
-362 -396 0
-362 -397 0
-362 -398 0
-362 -399 0
-362 -400 0
-362 -401 0
-362 -402 0
-362 -403 0
-362 -404 0
-362 -405 0
-362 -406 0
-362 -407 0
-362 -408 0
-362 -409 0
-362 -410 0
-362 -411 0
-362 -412 0
-362 -413 0
-362 -414 0
-362 -415 0
-362 -416 0
-363 -364 0
-363 -365 0
-363 -366 0
-363 -367 0
-363 -368 0
-363 -369 0
-363 -370 0
-363 -371 0
-363 -372 0
-363 -373 0
-363 -374 0
-363 -375 0
-363 -376 0
-363 -377 0
-363 -378 0
-363 -379 0
-363 -380 0
-363 -381 0
-363 -382 0
-363 -383 0
-363 -384 0
-363 -385 0
-363 -386 0
-363 -387 0
-363 -388 0
-363 -389 0
-363 -390 0
-363 -391 0
-363 -392 0
-363 -393 0
-363 -394 0
-363 -395 0
-363 -396 0
-363 -397 0
-363 -398 0
-363 -399 0
-363 -400 0
-363 -401 0
-363 -402 0
-363 -403 0
-363 -404 0
-363 -405 0
-363 -406 0
-363 -407 0
-363 -408 0
-363 -409 0
-363 -410 0
-363 -411 0
-363 -412 0
-363 -413 0
-363 -414 0
-363 -415 0
-363 -416 0
-364 -365 0
-364 -366 0
-364 -367 0
-364 -368 0
-364 -369 0
-364 -370 0
-364 -371 0
-364 -372 0
-364 -373 0
-364 -374 0
-364 -375 0
-364 -376 0
-364 -377 0
-364 -378 0
-364 -379 0
-364 -380 0
-364 -381 0
-364 -382 0
-364 -383 0
-364 -384 0
-364 -385 0
-364 -386 0
-364 -387 0
-364 -388 0
-364 -389 0
-364 -390 0
-364 -391 0
-364 -392 0
-364 -393 0
-364 -394 0
-364 -395 0
-364 -396 0
-364 -397 0
-364 -398 0
-364 -399 0
-364 -400 0
-364 -401 0
-364 -402 0
-364 -403 0
-364 -404 0
-364 -405 0
-364 -406 0
-364 -407 0
-364 -408 0
-364 -409 0
-364 -410 0
-364 -411 0
-364 -412 0
-364 -413 0
-364 -414 0
-364 -415 0
-364 -416 0
-365 -366 0
-365 -367 0
-365 -368 0
-365 -369 0
-365 -370 0
-365 -371 0
-365 -372 0
-365 -373 0
-365 -374 0
-365 -375 0
-365 -376 0
-365 -377 0
-365 -378 0
-365 -379 0
-365 -380 0
-365 -381 0
-365 -382 0
-365 -383 0
-365 -384 0
-365 -385 0
-365 -386 0
-365 -387 0
-365 -388 0
-365 -389 0
-365 -390 0
-365 -391 0
-365 -392 0
-365 -393 0
-365 -394 0
-365 -395 0
-365 -396 0
-365 -397 0
-365 -398 0
-365 -399 0
-365 -400 0
-365 -401 0
-365 -402 0
-365 -403 0
-365 -404 0
-365 -405 0
-365 -406 0
-365 -407 0
-365 -408 0
-365 -409 0
-365 -410 0
-365 -411 0
-365 -412 0
-365 -413 0
-365 -414 0
-365 -415 0
-365 -416 0
-366 -367 0
-366 -368 0
-366 -369 0
-366 -370 0
-366 -371 0
-366 -372 0
-366 -373 0
-366 -374 0
-366 -375 0
-366 -376 0
-366 -377 0
-366 -378 0
-366 -379 0
-366 -380 0
-366 -381 0
-366 -382 0
-366 -383 0
-366 -384 0
-366 -385 0
-366 -386 0
-366 -387 0
-366 -388 0
-366 -389 0
-366 -390 0
-366 -391 0
-366 -392 0
-366 -393 0
-366 -394 0
-366 -395 0
-366 -396 0
-366 -397 0
-366 -398 0
-366 -399 0
-366 -400 0
-366 -401 0
-366 -402 0
-366 -403 0
-366 -404 0
-366 -405 0
-366 -406 0
-366 -407 0
-366 -408 0
-366 -409 0
-366 -410 0
-366 -411 0
-366 -412 0
-366 -413 0
-366 -414 0
-366 -415 0
-366 -416 0
-367 -368 0
-367 -369 0
-367 -370 0
-367 -371 0
-367 -372 0
-367 -373 0
-367 -374 0
-367 -375 0
-367 -376 0
-367 -377 0
-367 -378 0
-367 -379 0
-367 -380 0
-367 -381 0
-367 -382 0
-367 -383 0
-367 -384 0
-367 -385 0
-367 -386 0
-367 -387 0
-367 -388 0
-367 -389 0
-367 -390 0
-367 -391 0
-367 -392 0
-367 -393 0
-367 -394 0
-367 -395 0
-367 -396 0
-367 -397 0
-367 -398 0
-367 -399 0
-367 -400 0
-367 -401 0
-367 -402 0
-367 -403 0
-367 -404 0
-367 -405 0
-367 -406 0
-367 -407 0
-367 -408 0
-367 -409 0
-367 -410 0
-367 -411 0
-367 -412 0
-367 -413 0
-367 -414 0
-367 -415 0
-367 -416 0
-368 -369 0
-368 -370 0
-368 -371 0
-368 -372 0
-368 -373 0
-368 -374 0
-368 -375 0
-368 -376 0
-368 -377 0
-368 -378 0
-368 -379 0
-368 -380 0
-368 -381 0
-368 -382 0
-368 -383 0
-368 -384 0
-368 -385 0
-368 -386 0
-368 -387 0
-368 -388 0
-368 -389 0
-368 -390 0
-368 -391 0
-368 -392 0
-368 -393 0
-368 -394 0
-368 -395 0
-368 -396 0
-368 -397 0
-368 -398 0
-368 -399 0
-368 -400 0
-368 -401 0
-368 -402 0
-368 -403 0
-368 -404 0
-368 -405 0
-368 -406 0
-368 -407 0
-368 -408 0
-368 -409 0
-368 -410 0
-368 -411 0
-368 -412 0
-368 -413 0
-368 -414 0
-368 -415 0
-368 -416 0
-369 -370 0
-369 -371 0
-369 -372 0
-369 -373 0
-369 -374 0
-369 -375 0
-369 -376 0
-369 -377 0
-369 -378 0
-369 -379 0
-369 -380 0
-369 -381 0
-369 -382 0
-369 -383 0
-369 -384 0
-369 -385 0
-369 -386 0
-369 -387 0
-369 -388 0
-369 -389 0
-369 -390 0
-369 -391 0
-369 -392 0
-369 -393 0
-369 -394 0
-369 -395 0
-369 -396 0
-369 -397 0
-369 -398 0
-369 -399 0
-369 -400 0
-369 -401 0
-369 -402 0
-369 -403 0
-369 -404 0
-369 -405 0
-369 -406 0
-369 -407 0
-369 -408 0
-369 -409 0
-369 -410 0
-369 -411 0
-369 -412 0
-369 -413 0
-369 -414 0
-369 -415 0
-369 -416 0
-370 -371 0
-370 -372 0
-370 -373 0
-370 -374 0
-370 -375 0
-370 -376 0
-370 -377 0
-370 -378 0
-370 -379 0
-370 -380 0
-370 -381 0
-370 -382 0
-370 -383 0
-370 -384 0
-370 -385 0
-370 -386 0
-370 -387 0
-370 -388 0
-370 -389 0
-370 -390 0
-370 -391 0
-370 -392 0
-370 -393 0
-370 -394 0
-370 -395 0
-370 -396 0
-370 -397 0
-370 -398 0
-370 -399 0
-370 -400 0
-370 -401 0
-370 -402 0
-370 -403 0
-370 -404 0
-370 -405 0
-370 -406 0
-370 -407 0
-370 -408 0
-370 -409 0
-370 -410 0
-370 -411 0
-370 -412 0
-370 -413 0
-370 -414 0
-370 -415 0
-370 -416 0
-371 -372 0
-371 -373 0
-371 -374 0
-371 -375 0
-371 -376 0
-371 -377 0
-371 -378 0
-371 -379 0
-371 -380 0
-371 -381 0
-371 -382 0
-371 -383 0
-371 -384 0
-371 -385 0
-371 -386 0
-371 -387 0
-371 -388 0
-371 -389 0
-371 -390 0
-371 -391 0
-371 -392 0
-371 -393 0
-371 -394 0
-371 -395 0
-371 -396 0
-371 -397 0
-371 -398 0
-371 -399 0
-371 -400 0
-371 -401 0
-371 -402 0
-371 -403 0
-371 -404 0
-371 -405 0
-371 -406 0
-371 -407 0
-371 -408 0
-371 -409 0
-371 -410 0
-371 -411 0
-371 -412 0
-371 -413 0
-371 -414 0
-371 -415 0
-371 -416 0
-372 -373 0
-372 -374 0
-372 -375 0
-372 -376 0
-372 -377 0
-372 -378 0
-372 -379 0
-372 -380 0
-372 -381 0
-372 -382 0
-372 -383 0
-372 -384 0
-372 -385 0
-372 -386 0
-372 -387 0
-372 -388 0
-372 -389 0
-372 -390 0
-372 -391 0
-372 -392 0
-372 -393 0
-372 -394 0
-372 -395 0
-372 -396 0
-372 -397 0
-372 -398 0
-372 -399 0
-372 -400 0
-372 -401 0
-372 -402 0
-372 -403 0
-372 -404 0
-372 -405 0
-372 -406 0
-372 -407 0
-372 -408 0
-372 -409 0
-372 -410 0
-372 -411 0
-372 -412 0
-372 -413 0
-372 -414 0
-372 -415 0
-372 -416 0
-373 -374 0
-373 -375 0
-373 -376 0
-373 -377 0
-373 -378 0
-373 -379 0
-373 -380 0
-373 -381 0
-373 -382 0
-373 -383 0
-373 -384 0
-373 -385 0
-373 -386 0
-373 -387 0
-373 -388 0
-373 -389 0
-373 -390 0
-373 -391 0
-373 -392 0
-373 -393 0
-373 -394 0
-373 -395 0
-373 -396 0
-373 -397 0
-373 -398 0
-373 -399 0
-373 -400 0
-373 -401 0
-373 -402 0
-373 -403 0
-373 -404 0
-373 -405 0
-373 -406 0
-373 -407 0
-373 -408 0
-373 -409 0
-373 -410 0
-373 -411 0
-373 -412 0
-373 -413 0
-373 -414 0
-373 -415 0
-373 -416 0
-374 -375 0
-374 -376 0
-374 -377 0
-374 -378 0
-374 -379 0
-374 -380 0
-374 -381 0
-374 -382 0
-374 -383 0
-374 -384 0
-374 -385 0
-374 -386 0
-374 -387 0
-374 -388 0
-374 -389 0
-374 -390 0
-374 -391 0
-374 -392 0
-374 -393 0
-374 -394 0
-374 -395 0
-374 -396 0
-374 -397 0
-374 -398 0
-374 -399 0
-374 -400 0
-374 -401 0
-374 -402 0
-374 -403 0
-374 -404 0
-374 -405 0
-374 -406 0
-374 -407 0
-374 -408 0
-374 -409 0
-374 -410 0
-374 -411 0
-374 -412 0
-374 -413 0
-374 -414 0
-374 -415 0
-374 -416 0
-375 -376 0
-375 -377 0
-375 -378 0
-375 -379 0
-375 -380 0
-375 -381 0
-375 -382 0
-375 -383 0
-375 -384 0
-375 -385 0
-375 -386 0
-375 -387 0
-375 -388 0
-375 -389 0
-375 -390 0
-375 -391 0
-375 -392 0
-375 -393 0
-375 -394 0
-375 -395 0
-375 -396 0
-375 -397 0
-375 -398 0
-375 -399 0
-375 -400 0
-375 -401 0
-375 -402 0
-375 -403 0
-375 -404 0
-375 -405 0
-375 -406 0
-375 -407 0
-375 -408 0
-375 -409 0
-375 -410 0
-375 -411 0
-375 -412 0
-375 -413 0
-375 -414 0
-375 -415 0
-375 -416 0
-376 -377 0
-376 -378 0
-376 -379 0
-376 -380 0
-376 -381 0
-376 -382 0
-376 -383 0
-376 -384 0
-376 -385 0
-376 -386 0
-376 -387 0
-376 -388 0
-376 -389 0
-376 -390 0
-376 -391 0
-376 -392 0
-376 -393 0
-376 -394 0
-376 -395 0
-376 -396 0
-376 -397 0
-376 -398 0
-376 -399 0
-376 -400 0
-376 -401 0
-376 -402 0
-376 -403 0
-376 -404 0
-376 -405 0
-376 -406 0
-376 -407 0
-376 -408 0
-376 -409 0
-376 -410 0
-376 -411 0
-376 -412 0
-376 -413 0
-376 -414 0
-376 -415 0
-376 -416 0
-377 -378 0
-377 -379 0
-377 -380 0
-377 -381 0
-377 -382 0
-377 -383 0
-377 -384 0
-377 -385 0
-377 -386 0
-377 -387 0
-377 -388 0
-377 -389 0
-377 -390 0
-377 -391 0
-377 -392 0
-377 -393 0
-377 -394 0
-377 -395 0
-377 -396 0
-377 -397 0
-377 -398 0
-377 -399 0
-377 -400 0
-377 -401 0
-377 -402 0
-377 -403 0
-377 -404 0
-377 -405 0
-377 -406 0
-377 -407 0
-377 -408 0
-377 -409 0
-377 -410 0
-377 -411 0
-377 -412 0
-377 -413 0
-377 -414 0
-377 -415 0
-377 -416 0
-378 -379 0
-378 -380 0
-378 -381 0
-378 -382 0
-378 -383 0
-378 -384 0
-378 -385 0
-378 -386 0
-378 -387 0
-378 -388 0
-378 -389 0
-378 -390 0
-378 -391 0
-378 -392 0
-378 -393 0
-378 -394 0
-378 -395 0
-378 -396 0
-378 -397 0
-378 -398 0
-378 -399 0
-378 -400 0
-378 -401 0
-378 -402 0
-378 -403 0
-378 -404 0
-378 -405 0
-378 -406 0
-378 -407 0
-378 -408 0
-378 -409 0
-378 -410 0
-378 -411 0
-378 -412 0
-378 -413 0
-378 -414 0
-378 -415 0
-378 -416 0
-379 -380 0
-379 -381 0
-379 -382 0
-379 -383 0
-379 -384 0
-379 -385 0
-379 -386 0
-379 -387 0
-379 -388 0
-379 -389 0
-379 -390 0
-379 -391 0
-379 -392 0
-379 -393 0
-379 -394 0
-379 -395 0
-379 -396 0
-379 -397 0
-379 -398 0
-379 -399 0
-379 -400 0
-379 -401 0
-379 -402 0
-379 -403 0
-379 -404 0
-379 -405 0
-379 -406 0
-379 -407 0
-379 -408 0
-379 -409 0
-379 -410 0
-379 -411 0
-379 -412 0
-379 -413 0
-379 -414 0
-379 -415 0
-379 -416 0
-380 -381 0
-380 -382 0
-380 -383 0
-380 -384 0
-380 -385 0
-380 -386 0
-380 -387 0
-380 -388 0
-380 -389 0
-380 -390 0
-380 -391 0
-380 -392 0
-380 -393 0
-380 -394 0
-380 -395 0
-380 -396 0
-380 -397 0
-380 -398 0
-380 -399 0
-380 -400 0
-380 -401 0
-380 -402 0
-380 -403 0
-380 -404 0
-380 -405 0
-380 -406 0
-380 -407 0
-380 -408 0
-380 -409 0
-380 -410 0
-380 -411 0
-380 -412 0
-380 -413 0
-380 -414 0
-380 -415 0
-380 -416 0
-381 -382 0
-381 -383 0
-381 -384 0
-381 -385 0
-381 -386 0
-381 -387 0
-381 -388 0
-381 -389 0
-381 -390 0
-381 -391 0
-381 -392 0
-381 -393 0
-381 -394 0
-381 -395 0
-381 -396 0
-381 -397 0
-381 -398 0
-381 -399 0
-381 -400 0
-381 -401 0
-381 -402 0
-381 -403 0
-381 -404 0
-381 -405 0
-381 -406 0
-381 -407 0
-381 -408 0
-381 -409 0
-381 -410 0
-381 -411 0
-381 -412 0
-381 -413 0
-381 -414 0
-381 -415 0
-381 -416 0
-382 -383 0
-382 -384 0
-382 -385 0
-382 -386 0
-382 -387 0
-382 -388 0
-382 -389 0
-382 -390 0
-382 -391 0
-382 -392 0
-382 -393 0
-382 -394 0
-382 -395 0
-382 -396 0
-382 -397 0
-382 -398 0
-382 -399 0
-382 -400 0
-382 -401 0
-382 -402 0
-382 -403 0
-382 -404 0
-382 -405 0
-382 -406 0
-382 -407 0
-382 -408 0
-382 -409 0
-382 -410 0
-382 -411 0
-382 -412 0
-382 -413 0
-382 -414 0
-382 -415 0
-382 -416 0
-383 -384 0
-383 -385 0
-383 -386 0
-383 -387 0
-383 -388 0
-383 -389 0
-383 -390 0
-383 -391 0
-383 -392 0
-383 -393 0
-383 -394 0
-383 -395 0
-383 -396 0
-383 -397 0
-383 -398 0
-383 -399 0
-383 -400 0
-383 -401 0
-383 -402 0
-383 -403 0
-383 -404 0
-383 -405 0
-383 -406 0
-383 -407 0
-383 -408 0
-383 -409 0
-383 -410 0
-383 -411 0
-383 -412 0
-383 -413 0
-383 -414 0
-383 -415 0
-383 -416 0
-384 -385 0
-384 -386 0
-384 -387 0
-384 -388 0
-384 -389 0
-384 -390 0
-384 -391 0
-384 -392 0
-384 -393 0
-384 -394 0
-384 -395 0
-384 -396 0
-384 -397 0
-384 -398 0
-384 -399 0
-384 -400 0
-384 -401 0
-384 -402 0
-384 -403 0
-384 -404 0
-384 -405 0
-384 -406 0
-384 -407 0
-384 -408 0
-384 -409 0
-384 -410 0
-384 -411 0
-384 -412 0
-384 -413 0
-384 -414 0
-384 -415 0
-384 -416 0
-385 -386 0
-385 -387 0
-385 -388 0
-385 -389 0
-385 -390 0
-385 -391 0
-385 -392 0
-385 -393 0
-385 -394 0
-385 -395 0
-385 -396 0
-385 -397 0
-385 -398 0
-385 -399 0
-385 -400 0
-385 -401 0
-385 -402 0
-385 -403 0
-385 -404 0
-385 -405 0
-385 -406 0
-385 -407 0
-385 -408 0
-385 -409 0
-385 -410 0
-385 -411 0
-385 -412 0
-385 -413 0
-385 -414 0
-385 -415 0
-385 -416 0
-386 -387 0
-386 -388 0
-386 -389 0
-386 -390 0
-386 -391 0
-386 -392 0
-386 -393 0
-386 -394 0
-386 -395 0
-386 -396 0
-386 -397 0
-386 -398 0
-386 -399 0
-386 -400 0
-386 -401 0
-386 -402 0
-386 -403 0
-386 -404 0
-386 -405 0
-386 -406 0
-386 -407 0
-386 -408 0
-386 -409 0
-386 -410 0
-386 -411 0
-386 -412 0
-386 -413 0
-386 -414 0
-386 -415 0
-386 -416 0
-387 -388 0
-387 -389 0
-387 -390 0
-387 -391 0
-387 -392 0
-387 -393 0
-387 -394 0
-387 -395 0
-387 -396 0
-387 -397 0
-387 -398 0
-387 -399 0
-387 -400 0
-387 -401 0
-387 -402 0
-387 -403 0
-387 -404 0
-387 -405 0
-387 -406 0
-387 -407 0
-387 -408 0
-387 -409 0
-387 -410 0
-387 -411 0
-387 -412 0
-387 -413 0
-387 -414 0
-387 -415 0
-387 -416 0
-388 -389 0
-388 -390 0
-388 -391 0
-388 -392 0
-388 -393 0
-388 -394 0
-388 -395 0
-388 -396 0
-388 -397 0
-388 -398 0
-388 -399 0
-388 -400 0
-388 -401 0
-388 -402 0
-388 -403 0
-388 -404 0
-388 -405 0
-388 -406 0
-388 -407 0
-388 -408 0
-388 -409 0
-388 -410 0
-388 -411 0
-388 -412 0
-388 -413 0
-388 -414 0
-388 -415 0
-388 -416 0
-389 -390 0
-389 -391 0
-389 -392 0
-389 -393 0
-389 -394 0
-389 -395 0
-389 -396 0
-389 -397 0
-389 -398 0
-389 -399 0
-389 -400 0
-389 -401 0
-389 -402 0
-389 -403 0
-389 -404 0
-389 -405 0
-389 -406 0
-389 -407 0
-389 -408 0
-389 -409 0
-389 -410 0
-389 -411 0
-389 -412 0
-389 -413 0
-389 -414 0
-389 -415 0
-389 -416 0
-390 -391 0
-390 -392 0
-390 -393 0
-390 -394 0
-390 -395 0
-390 -396 0
-390 -397 0
-390 -398 0
-390 -399 0
-390 -400 0
-390 -401 0
-390 -402 0
-390 -403 0
-390 -404 0
-390 -405 0
-390 -406 0
-390 -407 0
-390 -408 0
-390 -409 0
-390 -410 0
-390 -411 0
-390 -412 0
-390 -413 0
-390 -414 0
-390 -415 0
-390 -416 0
-391 -392 0
-391 -393 0
-391 -394 0
-391 -395 0
-391 -396 0
-391 -397 0
-391 -398 0
-391 -399 0
-391 -400 0
-391 -401 0
-391 -402 0
-391 -403 0
-391 -404 0
-391 -405 0
-391 -406 0
-391 -407 0
-391 -408 0
-391 -409 0
-391 -410 0
-391 -411 0
-391 -412 0
-391 -413 0
-391 -414 0
-391 -415 0
-391 -416 0
-392 -393 0
-392 -394 0
-392 -395 0
-392 -396 0
-392 -397 0
-392 -398 0
-392 -399 0
-392 -400 0
-392 -401 0
-392 -402 0
-392 -403 0
-392 -404 0
-392 -405 0
-392 -406 0
-392 -407 0
-392 -408 0
-392 -409 0
-392 -410 0
-392 -411 0
-392 -412 0
-392 -413 0
-392 -414 0
-392 -415 0
-392 -416 0
-393 -394 0
-393 -395 0
-393 -396 0
-393 -397 0
-393 -398 0
-393 -399 0
-393 -400 0
-393 -401 0
-393 -402 0
-393 -403 0
-393 -404 0
-393 -405 0
-393 -406 0
-393 -407 0
-393 -408 0
-393 -409 0
-393 -410 0
-393 -411 0
-393 -412 0
-393 -413 0
-393 -414 0
-393 -415 0
-393 -416 0
-394 -395 0
-394 -396 0
-394 -397 0
-394 -398 0
-394 -399 0
-394 -400 0
-394 -401 0
-394 -402 0
-394 -403 0
-394 -404 0
-394 -405 0
-394 -406 0
-394 -407 0
-394 -408 0
-394 -409 0
-394 -410 0
-394 -411 0
-394 -412 0
-394 -413 0
-394 -414 0
-394 -415 0
-394 -416 0
-395 -396 0
-395 -397 0
-395 -398 0
-395 -399 0
-395 -400 0
-395 -401 0
-395 -402 0
-395 -403 0
-395 -404 0
-395 -405 0
-395 -406 0
-395 -407 0
-395 -408 0
-395 -409 0
-395 -410 0
-395 -411 0
-395 -412 0
-395 -413 0
-395 -414 0
-395 -415 0
-395 -416 0
-396 -397 0
-396 -398 0
-396 -399 0
-396 -400 0
-396 -401 0
-396 -402 0
-396 -403 0
-396 -404 0
-396 -405 0
-396 -406 0
-396 -407 0
-396 -408 0
-396 -409 0
-396 -410 0
-396 -411 0
-396 -412 0
-396 -413 0
-396 -414 0
-396 -415 0
-396 -416 0
-397 -398 0
-397 -399 0
-397 -400 0
-397 -401 0
-397 -402 0
-397 -403 0
-397 -404 0
-397 -405 0
-397 -406 0
-397 -407 0
-397 -408 0
-397 -409 0
-397 -410 0
-397 -411 0
-397 -412 0
-397 -413 0
-397 -414 0
-397 -415 0
-397 -416 0
-398 -399 0
-398 -400 0
-398 -401 0
-398 -402 0
-398 -403 0
-398 -404 0
-398 -405 0
-398 -406 0
-398 -407 0
-398 -408 0
-398 -409 0
-398 -410 0
-398 -411 0
-398 -412 0
-398 -413 0
-398 -414 0
-398 -415 0
-398 -416 0
-399 -400 0
-399 -401 0
-399 -402 0
-399 -403 0
-399 -404 0
-399 -405 0
-399 -406 0
-399 -407 0
-399 -408 0
-399 -409 0
-399 -410 0
-399 -411 0
-399 -412 0
-399 -413 0
-399 -414 0
-399 -415 0
-399 -416 0
-400 -401 0
-400 -402 0
-400 -403 0
-400 -404 0
-400 -405 0
-400 -406 0
-400 -407 0
-400 -408 0
-400 -409 0
-400 -410 0
-400 -411 0
-400 -412 0
-400 -413 0
-400 -414 0
-400 -415 0
-400 -416 0
-401 -402 0
-401 -403 0
-401 -404 0
-401 -405 0
-401 -406 0
-401 -407 0
-401 -408 0
-401 -409 0
-401 -410 0
-401 -411 0
-401 -412 0
-401 -413 0
-401 -414 0
-401 -415 0
-401 -416 0
-402 -403 0
-402 -404 0
-402 -405 0
-402 -406 0
-402 -407 0
-402 -408 0
-402 -409 0
-402 -410 0
-402 -411 0
-402 -412 0
-402 -413 0
-402 -414 0
-402 -415 0
-402 -416 0
-403 -404 0
-403 -405 0
-403 -406 0
-403 -407 0
-403 -408 0
-403 -409 0
-403 -410 0
-403 -411 0
-403 -412 0
-403 -413 0
-403 -414 0
-403 -415 0
-403 -416 0
-404 -405 0
-404 -406 0
-404 -407 0
-404 -408 0
-404 -409 0
-404 -410 0
-404 -411 0
-404 -412 0
-404 -413 0
-404 -414 0
-404 -415 0
-404 -416 0
-405 -406 0
-405 -407 0
-405 -408 0
-405 -409 0
-405 -410 0
-405 -411 0
-405 -412 0
-405 -413 0
-405 -414 0
-405 -415 0
-405 -416 0
-406 -407 0
-406 -408 0
-406 -409 0
-406 -410 0
-406 -411 0
-406 -412 0
-406 -413 0
-406 -414 0
-406 -415 0
-406 -416 0
-407 -408 0
-407 -409 0
-407 -410 0
-407 -411 0
-407 -412 0
-407 -413 0
-407 -414 0
-407 -415 0
-407 -416 0
-408 -409 0
-408 -410 0
-408 -411 0
-408 -412 0
-408 -413 0
-408 -414 0
-408 -415 0
-408 -416 0
-409 -410 0
-409 -411 0
-409 -412 0
-409 -413 0
-409 -414 0
-409 -415 0
-409 -416 0
-410 -411 0
-410 -412 0
-410 -413 0
-410 -414 0
-410 -415 0
-410 -416 0
-411 -412 0
-411 -413 0
-411 -414 0
-411 -415 0
-411 -416 0
-412 -413 0
-412 -414 0
-412 -415 0
-412 -416 0
-413 -414 0
-413 -415 0
-413 -416 0
-414 -415 0
-414 -416 0
-415 -416 0
-305 -65 0
-305 -66 0
-305 -67 0
-305 68 0
-305 -69 0
-305 -70 0
-305 -71 0
-305 72 0
-305 -73 0
-305 -74 0
-305 -75 0
-305 76 0
-305 -77 0
-305 -78 0
-305 -79 0
-305 80 0
-306 -65 0
-306 66 0
-306 -67 0
-306 -68 0
-306 -69 0
-306 70 0
-306 -71 0
-306 -72 0
-306 -73 0
-306 74 0
-306 -75 0
-306 -76 0
-306 -77 0
-306 78 0
-306 -79 0
-306 -80 0
-307 -65 0
-307 -66 0
-307 67 0
-307 -68 0
-307 -69 0
-307 -70 0
-307 71 0
-307 -72 0
-307 -73 0
-307 -74 0
-307 75 0
-307 -76 0
-307 -77 0
-307 -78 0
-307 79 0
-307 -80 0
-308 65 0
-308 -66 0
-308 -67 0
-308 -68 0
-308 69 0
-308 -70 0
-308 -71 0
-308 -72 0
-308 73 0
-308 -74 0
-308 -75 0
-308 -76 0
-308 77 0
-308 -78 0
-308 -79 0
-308 -80 0
-309 -65 0
-309 -66 0
-309 -67 0
-309 -68 0
-309 -69 0
-309 70 0
-309 -71 0
-309 72 0
-309 -73 0
-309 -74 0
-309 -75 0
-309 -76 0
-309 -77 0
-309 78 0
-309 -79 0
-309 80 0
-310 -65 0
-310 66 0
-310 -67 0
-310 68 0
-310 -69 0
-310 -70 0
-310 -71 0
-310 -72 0
-310 -73 0
-310 74 0
-310 -75 0
-310 76 0
-310 -77 0
-310 -78 0
-310 -79 0
-310 -80 0
-311 -65 0
-311 -66 0
-311 -67 0
-311 -68 0
-311 69 0
-311 -70 0
-311 71 0
-311 -72 0
-311 -73 0
-311 -74 0
-311 -75 0
-311 -76 0
-311 77 0
-311 -78 0
-311 79 0
-311 -80 0
-312 65 0
-312 -66 0
-312 67 0
-312 -68 0
-312 -69 0
-312 -70 0
-312 -71 0
-312 -72 0
-312 73 0
-312 -74 0
-312 75 0
-312 -76 0
-312 -77 0
-312 -78 0
-312 -79 0
-312 -80 0
-313 -65 0
-313 -66 0
-313 -67 0
-313 -68 0
-313 -69 0
-313 -70 0
-313 -71 0
-313 -72 0
-313 -73 0
-313 74 0
-313 -75 0
-313 76 0
-313 -77 0
-313 78 0
-313 -79 0
-313 80 0
-314 -65 0
-314 66 0
-314 -67 0
-314 68 0
-314 -69 0
-314 70 0
-314 -71 0
-314 72 0
-314 -73 0
-314 -74 0
-314 -75 0
-314 -76 0
-314 -77 0
-314 -78 0
-314 -79 0
-314 -80 0
-315 -65 0
-315 -66 0
-315 -67 0
-315 -68 0
-315 -69 0
-315 -70 0
-315 -71 0
-315 -72 0
-315 73 0
-315 -74 0
-315 75 0
-315 -76 0
-315 77 0
-315 -78 0
-315 79 0
-315 -80 0
-316 65 0
-316 -66 0
-316 67 0
-316 -68 0
-316 69 0
-316 -70 0
-316 71 0
-316 -72 0
-316 -73 0
-316 -74 0
-316 -75 0
-316 -76 0
-316 -77 0
-316 -78 0
-316 -79 0
-316 -80 0
-317 -65 0
-317 -66 2 0
-317 66 -2 0
-317 -67 0
-317 -68 4 0
-317 68 -4 0
-317 -69 0
-317 -70 6 0
-317 70 -6 0
-317 -71 0
-317 -72 8 0
-317 72 -8 0
-317 -73 0
-317 -74 10 0
-317 74 -10 0
-317 -75 0
-317 -76 12 0
-317 76 -12 0
-317 -77 0
-317 -78 14 0
-317 78 -14 0
-317 -79 0
-317 -80 16 0
-317 80 -16 0
-318 -65 0
-318 -66 -2 0
-318 66 2 0
-318 -67 0
-318 -68 -4 0
-318 68 4 0
-318 -69 0
-318 -70 -6 0
-318 70 6 0
-318 -71 0
-318 -72 -8 0
-318 72 8 0
-318 -73 0
-318 -74 -10 0
-318 74 10 0
-318 -75 0
-318 -76 -12 0
-318 76 12 0
-318 -77 0
-318 -78 -14 0
-318 78 14 0
-318 -79 0
-318 -80 -16 0
-318 80 16 0
-319 -65 1 0
-319 65 -1 0
-319 -66 0
-319 -67 3 0
-319 67 -3 0
-319 -68 0
-319 -69 5 0
-319 69 -5 0
-319 -70 0
-319 -71 7 0
-319 71 -7 0
-319 -72 0
-319 -73 9 0
-319 73 -9 0
-319 -74 0
-319 -75 11 0
-319 75 -11 0
-319 -76 0
-319 -77 13 0
-319 77 -13 0
-319 -78 0
-319 -79 15 0
-319 79 -15 0
-319 -80 0
-320 -65 -1 0
-320 65 1 0
-320 -66 0
-320 -67 -3 0
-320 67 3 0
-320 -68 0
-320 -69 -5 0
-320 69 5 0
-320 -70 0
-320 -71 -7 0
-320 71 7 0
-320 -72 0
-320 -73 -9 0
-320 73 9 0
-320 -74 0
-320 -75 -11 0
-320 75 11 0
-320 -76 0
-320 -77 -13 0
-320 77 13 0
-320 -78 0
-320 -79 -15 0
-320 79 15 0
-320 -80 0
-321 -65 0
-321 -66 18 0
-321 66 -18 0
-321 -67 0
-321 -68 20 0
-321 68 -20 0
-321 -69 0
-321 -70 22 0
-321 70 -22 0
-321 -71 0
-321 -72 24 0
-321 72 -24 0
-321 -73 0
-321 -74 26 0
-321 74 -26 0
-321 -75 0
-321 -76 28 0
-321 76 -28 0
-321 -77 0
-321 -78 30 0
-321 78 -30 0
-321 -79 0
-321 -80 32 0
-321 80 -32 0
-322 -65 0
-322 -66 -18 0
-322 66 18 0
-322 -67 0
-322 -68 -20 0
-322 68 20 0
-322 -69 0
-322 -70 -22 0
-322 70 22 0
-322 -71 0
-322 -72 -24 0
-322 72 24 0
-322 -73 0
-322 -74 -26 0
-322 74 26 0
-322 -75 0
-322 -76 -28 0
-322 76 28 0
-322 -77 0
-322 -78 -30 0
-322 78 30 0
-322 -79 0
-322 -80 -32 0
-322 80 32 0
-323 -65 17 0
-323 65 -17 0
-323 -66 0
-323 -67 19 0
-323 67 -19 0
-323 -68 0
-323 -69 21 0
-323 69 -21 0
-323 -70 0
-323 -71 23 0
-323 71 -23 0
-323 -72 0
-323 -73 25 0
-323 73 -25 0
-323 -74 0
-323 -75 27 0
-323 75 -27 0
-323 -76 0
-323 -77 29 0
-323 77 -29 0
-323 -78 0
-323 -79 31 0
-323 79 -31 0
-323 -80 0
-324 -65 -17 0
-324 65 17 0
-324 -66 0
-324 -67 -19 0
-324 67 19 0
-324 -68 0
-324 -69 -21 0
-324 69 21 0
-324 -70 0
-324 -71 -23 0
-324 71 23 0
-324 -72 0
-324 -73 -25 0
-324 73 25 0
-324 -74 0
-324 -75 -27 0
-324 75 27 0
-324 -76 0
-324 -77 -29 0
-324 77 29 0
-324 -78 0
-324 -79 -31 0
-324 79 31 0
-324 -80 0
-325 -65 0
-325 -66 34 0
-325 66 -34 0
-325 -67 0
-325 -68 36 0
-325 68 -36 0
-325 -69 0
-325 -70 38 0
-325 70 -38 0
-325 -71 0
-325 -72 40 0
-325 72 -40 0
-325 -73 0
-325 -74 42 0
-325 74 -42 0
-325 -75 0
-325 -76 44 0
-325 76 -44 0
-325 -77 0
-325 -78 46 0
-325 78 -46 0
-325 -79 0
-325 -80 48 0
-325 80 -48 0
-326 -65 0
-326 -66 -34 0
-326 66 34 0
-326 -67 0
-326 -68 -36 0
-326 68 36 0
-326 -69 0
-326 -70 -38 0
-326 70 38 0
-326 -71 0
-326 -72 -40 0
-326 72 40 0
-326 -73 0
-326 -74 -42 0
-326 74 42 0
-326 -75 0
-326 -76 -44 0
-326 76 44 0
-326 -77 0
-326 -78 -46 0
-326 78 46 0
-326 -79 0
-326 -80 -48 0
-326 80 48 0
-327 -65 33 0
-327 65 -33 0
-327 -66 0
-327 -67 35 0
-327 67 -35 0
-327 -68 0
-327 -69 37 0
-327 69 -37 0
-327 -70 0
-327 -71 39 0
-327 71 -39 0
-327 -72 0
-327 -73 41 0
-327 73 -41 0
-327 -74 0
-327 -75 43 0
-327 75 -43 0
-327 -76 0
-327 -77 45 0
-327 77 -45 0
-327 -78 0
-327 -79 47 0
-327 79 -47 0
-327 -80 0
-328 -65 -33 0
-328 65 33 0
-328 -66 0
-328 -67 -35 0
-328 67 35 0
-328 -68 0
-328 -69 -37 0
-328 69 37 0
-328 -70 0
-328 -71 -39 0
-328 71 39 0
-328 -72 0
-328 -73 -41 0
-328 73 41 0
-328 -74 0
-328 -75 -43 0
-328 75 43 0
-328 -76 0
-328 -77 -45 0
-328 77 45 0
-328 -78 0
-328 -79 -47 0
-328 79 47 0
-328 -80 0
-329 -65 0
-329 -66 50 0
-329 66 -50 0
-329 -67 0
-329 -68 52 0
-329 68 -52 0
-329 -69 0
-329 -70 54 0
-329 70 -54 0
-329 -71 0
-329 -72 56 0
-329 72 -56 0
-329 -73 0
-329 -74 58 0
-329 74 -58 0
-329 -75 0
-329 -76 60 0
-329 76 -60 0
-329 -77 0
-329 -78 62 0
-329 78 -62 0
-329 -79 0
-329 -80 64 0
-329 80 -64 0
-330 -65 0
-330 -66 -50 0
-330 66 50 0
-330 -67 0
-330 -68 -52 0
-330 68 52 0
-330 -69 0
-330 -70 -54 0
-330 70 54 0
-330 -71 0
-330 -72 -56 0
-330 72 56 0
-330 -73 0
-330 -74 -58 0
-330 74 58 0
-330 -75 0
-330 -76 -60 0
-330 76 60 0
-330 -77 0
-330 -78 -62 0
-330 78 62 0
-330 -79 0
-330 -80 -64 0
-330 80 64 0
-331 -65 49 0
-331 65 -49 0
-331 -66 0
-331 -67 51 0
-331 67 -51 0
-331 -68 0
-331 -69 53 0
-331 69 -53 0
-331 -70 0
-331 -71 55 0
-331 71 -55 0
-331 -72 0
-331 -73 57 0
-331 73 -57 0
-331 -74 0
-331 -75 59 0
-331 75 -59 0
-331 -76 0
-331 -77 61 0
-331 77 -61 0
-331 -78 0
-331 -79 63 0
-331 79 -63 0
-331 -80 0
-332 -65 -49 0
-332 65 49 0
-332 -66 0
-332 -67 -51 0
-332 67 51 0
-332 -68 0
-332 -69 -53 0
-332 69 53 0
-332 -70 0
-332 -71 -55 0
-332 71 55 0
-332 -72 0
-332 -73 -57 0
-332 73 57 0
-332 -74 0
-332 -75 -59 0
-332 75 59 0
-332 -76 0
-332 -77 -61 0
-332 77 61 0
-332 -78 0
-332 -79 -63 0
-332 79 63 0
-332 -80 0
-333 -65 0
-333 -66 0
-333 -67 0
-333 -68 0
-333 -69 0
-333 -70 0
-333 71 0
-333 72 0
-333 -73 0
-333 -74 0
-333 -75 0
-333 -76 0
-333 -77 0
-333 -78 0
-333 79 0
-333 80 0
-334 -65 0
-334 -66 0
-334 67 0
-334 68 0
-334 -69 0
-334 -70 0
-334 -71 0
-334 -72 0
-334 -73 0
-334 -74 0
-334 75 0
-334 76 0
-334 -77 0
-334 -78 0
-334 -79 0
-334 -80 0
-335 -65 0
-335 -66 0
-335 -67 0
-335 -68 0
-335 69 0
-335 70 0
-335 -71 0
-335 -72 0
-335 -73 0
-335 -74 0
-335 -75 0
-335 -76 0
-335 77 0
-335 78 0
-335 -79 0
-335 -80 0
-336 65 0
-336 66 0
-336 -67 0
-336 -68 0
-336 -69 0
-336 -70 0
-336 -71 0
-336 -72 0
-336 73 0
-336 74 0
-336 -75 0
-336 -76 0
-336 -77 0
-336 -78 0
-336 -79 0
-336 -80 0
-337 -65 0
-337 -66 0
-337 -67 0
-337 -68 0
-337 -69 0
-337 -70 0
-337 -71 0
-337 -72 0
-337 -73 0
-337 -74 0
-337 75 0
-337 76 0
-337 -77 0
-337 -78 0
-337 79 0
-337 80 0
-338 -65 0
-338 -66 0
-338 67 0
-338 68 0
-338 -69 0
-338 -70 0
-338 71 0
-338 72 0
-338 -73 0
-338 -74 0
-338 -75 0
-338 -76 0
-338 -77 0
-338 -78 0
-338 -79 0
-338 -80 0
-339 -65 0
-339 -66 0
-339 -67 0
-339 -68 0
-339 -69 0
-339 -70 0
-339 -71 0
-339 -72 0
-339 73 0
-339 74 0
-339 -75 0
-339 -76 0
-339 77 0
-339 78 0
-339 -79 0
-339 -80 0
-340 65 0
-340 66 0
-340 -67 0
-340 -68 0
-340 69 0
-340 70 0
-340 -71 0
-340 -72 0
-340 -73 0
-340 -74 0
-340 -75 0
-340 -76 0
-340 -77 0
-340 -78 0
-340 -79 0
-340 -80 0
-341 -65 0
-341 -66 0
-341 -67 3 0
-341 67 -3 0
-341 -68 4 0
-341 68 -4 0
-341 -69 0
-341 -70 0
-341 -71 7 0
-341 71 -7 0
-341 -72 8 0
-341 72 -8 0
-341 -73 0
-341 -74 0
-341 -75 11 0
-341 75 -11 0
-341 -76 12 0
-341 76 -12 0
-341 -77 0
-341 -78 0
-341 -79 15 0
-341 79 -15 0
-341 -80 16 0
-341 80 -16 0
-342 -65 0
-342 -66 0
-342 -67 -3 0
-342 67 3 0
-342 -68 -4 0
-342 68 4 0
-342 -69 0
-342 -70 0
-342 -71 -7 0
-342 71 7 0
-342 -72 -8 0
-342 72 8 0
-342 -73 0
-342 -74 0
-342 -75 -11 0
-342 75 11 0
-342 -76 -12 0
-342 76 12 0
-342 -77 0
-342 -78 0
-342 -79 -15 0
-342 79 15 0
-342 -80 -16 0
-342 80 16 0
-343 -65 1 0
-343 65 -1 0
-343 -66 2 0
-343 66 -2 0
-343 -67 0
-343 -68 0
-343 -69 5 0
-343 69 -5 0
-343 -70 6 0
-343 70 -6 0
-343 -71 0
-343 -72 0
-343 -73 9 0
-343 73 -9 0
-343 -74 10 0
-343 74 -10 0
-343 -75 0
-343 -76 0
-343 -77 13 0
-343 77 -13 0
-343 -78 14 0
-343 78 -14 0
-343 -79 0
-343 -80 0
-344 -65 -1 0
-344 65 1 0
-344 -66 -2 0
-344 66 2 0
-344 -67 0
-344 -68 0
-344 -69 -5 0
-344 69 5 0
-344 -70 -6 0
-344 70 6 0
-344 -71 0
-344 -72 0
-344 -73 -9 0
-344 73 9 0
-344 -74 -10 0
-344 74 10 0
-344 -75 0
-344 -76 0
-344 -77 -13 0
-344 77 13 0
-344 -78 -14 0
-344 78 14 0
-344 -79 0
-344 -80 0
-345 -65 0
-345 -66 0
-345 -67 19 0
-345 67 -19 0
-345 -68 20 0
-345 68 -20 0
-345 -69 0
-345 -70 0
-345 -71 23 0
-345 71 -23 0
-345 -72 24 0
-345 72 -24 0
-345 -73 0
-345 -74 0
-345 -75 27 0
-345 75 -27 0
-345 -76 28 0
-345 76 -28 0
-345 -77 0
-345 -78 0
-345 -79 31 0
-345 79 -31 0
-345 -80 32 0
-345 80 -32 0
-346 -65 0
-346 -66 0
-346 -67 -19 0
-346 67 19 0
-346 -68 -20 0
-346 68 20 0
-346 -69 0
-346 -70 0
-346 -71 -23 0
-346 71 23 0
-346 -72 -24 0
-346 72 24 0
-346 -73 0
-346 -74 0
-346 -75 -27 0
-346 75 27 0
-346 -76 -28 0
-346 76 28 0
-346 -77 0
-346 -78 0
-346 -79 -31 0
-346 79 31 0
-346 -80 -32 0
-346 80 32 0
-347 -65 17 0
-347 65 -17 0
-347 -66 18 0
-347 66 -18 0
-347 -67 0
-347 -68 0
-347 -69 21 0
-347 69 -21 0
-347 -70 22 0
-347 70 -22 0
-347 -71 0
-347 -72 0
-347 -73 25 0
-347 73 -25 0
-347 -74 26 0
-347 74 -26 0
-347 -75 0
-347 -76 0
-347 -77 29 0
-347 77 -29 0
-347 -78 30 0
-347 78 -30 0
-347 -79 0
-347 -80 0
-348 -65 -17 0
-348 65 17 0
-348 -66 -18 0
-348 66 18 0
-348 -67 0
-348 -68 0
-348 -69 -21 0
-348 69 21 0
-348 -70 -22 0
-348 70 22 0
-348 -71 0
-348 -72 0
-348 -73 -25 0
-348 73 25 0
-348 -74 -26 0
-348 74 26 0
-348 -75 0
-348 -76 0
-348 -77 -29 0
-348 77 29 0
-348 -78 -30 0
-348 78 30 0
-348 -79 0
-348 -80 0
-349 -65 0
-349 -66 0
-349 -67 35 0
-349 67 -35 0
-349 -68 36 0
-349 68 -36 0
-349 -69 0
-349 -70 0
-349 -71 39 0
-349 71 -39 0
-349 -72 40 0
-349 72 -40 0
-349 -73 0
-349 -74 0
-349 -75 43 0
-349 75 -43 0
-349 -76 44 0
-349 76 -44 0
-349 -77 0
-349 -78 0
-349 -79 47 0
-349 79 -47 0
-349 -80 48 0
-349 80 -48 0
-350 -65 0
-350 -66 0
-350 -67 -35 0
-350 67 35 0
-350 -68 -36 0
-350 68 36 0
-350 -69 0
-350 -70 0
-350 -71 -39 0
-350 71 39 0
-350 -72 -40 0
-350 72 40 0
-350 -73 0
-350 -74 0
-350 -75 -43 0
-350 75 43 0
-350 -76 -44 0
-350 76 44 0
-350 -77 0
-350 -78 0
-350 -79 -47 0
-350 79 47 0
-350 -80 -48 0
-350 80 48 0
-351 -65 33 0
-351 65 -33 0
-351 -66 34 0
-351 66 -34 0
-351 -67 0
-351 -68 0
-351 -69 37 0
-351 69 -37 0
-351 -70 38 0
-351 70 -38 0
-351 -71 0
-351 -72 0
-351 -73 41 0
-351 73 -41 0
-351 -74 42 0
-351 74 -42 0
-351 -75 0
-351 -76 0
-351 -77 45 0
-351 77 -45 0
-351 -78 46 0
-351 78 -46 0
-351 -79 0
-351 -80 0
-352 -65 -33 0
-352 65 33 0
-352 -66 -34 0
-352 66 34 0
-352 -67 0
-352 -68 0
-352 -69 -37 0
-352 69 37 0
-352 -70 -38 0
-352 70 38 0
-352 -71 0
-352 -72 0
-352 -73 -41 0
-352 73 41 0
-352 -74 -42 0
-352 74 42 0
-352 -75 0
-352 -76 0
-352 -77 -45 0
-352 77 45 0
-352 -78 -46 0
-352 78 46 0
-352 -79 0
-352 -80 0
-353 -65 0
-353 -66 0
-353 -67 51 0
-353 67 -51 0
-353 -68 52 0
-353 68 -52 0
-353 -69 0
-353 -70 0
-353 -71 55 0
-353 71 -55 0
-353 -72 56 0
-353 72 -56 0
-353 -73 0
-353 -74 0
-353 -75 59 0
-353 75 -59 0
-353 -76 60 0
-353 76 -60 0
-353 -77 0
-353 -78 0
-353 -79 63 0
-353 79 -63 0
-353 -80 64 0
-353 80 -64 0
-354 -65 0
-354 -66 0
-354 -67 -51 0
-354 67 51 0
-354 -68 -52 0
-354 68 52 0
-354 -69 0
-354 -70 0
-354 -71 -55 0
-354 71 55 0
-354 -72 -56 0
-354 72 56 0
-354 -73 0
-354 -74 0
-354 -75 -59 0
-354 75 59 0
-354 -76 -60 0
-354 76 60 0
-354 -77 0
-354 -78 0
-354 -79 -63 0
-354 79 63 0
-354 -80 -64 0
-354 80 64 0
-355 -65 49 0
-355 65 -49 0
-355 -66 50 0
-355 66 -50 0
-355 -67 0
-355 -68 0
-355 -69 53 0
-355 69 -53 0
-355 -70 54 0
-355 70 -54 0
-355 -71 0
-355 -72 0
-355 -73 57 0
-355 73 -57 0
-355 -74 58 0
-355 74 -58 0
-355 -75 0
-355 -76 0
-355 -77 61 0
-355 77 -61 0
-355 -78 62 0
-355 78 -62 0
-355 -79 0
-355 -80 0
-356 -65 -49 0
-356 65 49 0
-356 -66 -50 0
-356 66 50 0
-356 -67 0
-356 -68 0
-356 -69 -53 0
-356 69 53 0
-356 -70 -54 0
-356 70 54 0
-356 -71 0
-356 -72 0
-356 -73 -57 0
-356 73 57 0
-356 -74 -58 0
-356 74 58 0
-356 -75 0
-356 -76 0
-356 -77 -61 0
-356 77 61 0
-356 -78 -62 0
-356 78 62 0
-356 -79 0
-356 -80 0
-357 -65 0
-357 -66 0
-357 -67 0
-357 -68 0
-357 -69 0
-357 -70 0
-357 -71 0
-357 -72 0
-357 -73 0
-357 -74 0
-357 -75 0
-357 -76 0
-357 77 0
-357 78 0
-357 79 0
-357 80 0
-358 -65 0
-358 -66 0
-358 -67 0
-358 -68 0
-358 69 0
-358 70 0
-358 71 0
-358 72 0
-358 -73 0
-358 -74 0
-358 -75 0
-358 -76 0
-358 -77 0
-358 -78 0
-358 -79 0
-358 -80 0
-359 -65 0
-359 -66 0
-359 -67 0
-359 -68 0
-359 -69 0
-359 -70 0
-359 -71 0
-359 -72 0
-359 73 0
-359 74 0
-359 75 0
-359 76 0
-359 -77 0
-359 -78 0
-359 -79 0
-359 -80 0
-360 65 0
-360 66 0
-360 67 0
-360 68 0
-360 -69 0
-360 -70 0
-360 -71 0
-360 -72 0
-360 -73 0
-360 -74 0
-360 -75 0
-360 -76 0
-360 -77 0
-360 -78 0
-360 -79 0
-360 -80 0
-361 -65 0
-361 -66 0
-361 -67 0
-361 -68 0
-361 -69 5 0
-361 69 -5 0
-361 -70 6 0
-361 70 -6 0
-361 -71 7 0
-361 71 -7 0
-361 -72 8 0
-361 72 -8 0
-361 -73 0
-361 -74 0
-361 -75 0
-361 -76 0
-361 -77 13 0
-361 77 -13 0
-361 -78 14 0
-361 78 -14 0
-361 -79 15 0
-361 79 -15 0
-361 -80 16 0
-361 80 -16 0
-362 -65 0
-362 -66 0
-362 -67 0
-362 -68 0
-362 -69 -5 0
-362 69 5 0
-362 -70 -6 0
-362 70 6 0
-362 -71 -7 0
-362 71 7 0
-362 -72 -8 0
-362 72 8 0
-362 -73 0
-362 -74 0
-362 -75 0
-362 -76 0
-362 -77 -13 0
-362 77 13 0
-362 -78 -14 0
-362 78 14 0
-362 -79 -15 0
-362 79 15 0
-362 -80 -16 0
-362 80 16 0
-363 -65 1 0
-363 65 -1 0
-363 -66 2 0
-363 66 -2 0
-363 -67 3 0
-363 67 -3 0
-363 -68 4 0
-363 68 -4 0
-363 -69 0
-363 -70 0
-363 -71 0
-363 -72 0
-363 -73 9 0
-363 73 -9 0
-363 -74 10 0
-363 74 -10 0
-363 -75 11 0
-363 75 -11 0
-363 -76 12 0
-363 76 -12 0
-363 -77 0
-363 -78 0
-363 -79 0
-363 -80 0
-364 -65 -1 0
-364 65 1 0
-364 -66 -2 0
-364 66 2 0
-364 -67 -3 0
-364 67 3 0
-364 -68 -4 0
-364 68 4 0
-364 -69 0
-364 -70 0
-364 -71 0
-364 -72 0
-364 -73 -9 0
-364 73 9 0
-364 -74 -10 0
-364 74 10 0
-364 -75 -11 0
-364 75 11 0
-364 -76 -12 0
-364 76 12 0
-364 -77 0
-364 -78 0
-364 -79 0
-364 -80 0
-365 -65 0
-365 -66 0
-365 -67 0
-365 -68 0
-365 -69 21 0
-365 69 -21 0
-365 -70 22 0
-365 70 -22 0
-365 -71 23 0
-365 71 -23 0
-365 -72 24 0
-365 72 -24 0
-365 -73 0
-365 -74 0
-365 -75 0
-365 -76 0
-365 -77 29 0
-365 77 -29 0
-365 -78 30 0
-365 78 -30 0
-365 -79 31 0
-365 79 -31 0
-365 -80 32 0
-365 80 -32 0
-366 -65 0
-366 -66 0
-366 -67 0
-366 -68 0
-366 -69 -21 0
-366 69 21 0
-366 -70 -22 0
-366 70 22 0
-366 -71 -23 0
-366 71 23 0
-366 -72 -24 0
-366 72 24 0
-366 -73 0
-366 -74 0
-366 -75 0
-366 -76 0
-366 -77 -29 0
-366 77 29 0
-366 -78 -30 0
-366 78 30 0
-366 -79 -31 0
-366 79 31 0
-366 -80 -32 0
-366 80 32 0
-367 -65 17 0
-367 65 -17 0
-367 -66 18 0
-367 66 -18 0
-367 -67 19 0
-367 67 -19 0
-367 -68 20 0
-367 68 -20 0
-367 -69 0
-367 -70 0
-367 -71 0
-367 -72 0
-367 -73 25 0
-367 73 -25 0
-367 -74 26 0
-367 74 -26 0
-367 -75 27 0
-367 75 -27 0
-367 -76 28 0
-367 76 -28 0
-367 -77 0
-367 -78 0
-367 -79 0
-367 -80 0
-368 -65 -17 0
-368 65 17 0
-368 -66 -18 0
-368 66 18 0
-368 -67 -19 0
-368 67 19 0
-368 -68 -20 0
-368 68 20 0
-368 -69 0
-368 -70 0
-368 -71 0
-368 -72 0
-368 -73 -25 0
-368 73 25 0
-368 -74 -26 0
-368 74 26 0
-368 -75 -27 0
-368 75 27 0
-368 -76 -28 0
-368 76 28 0
-368 -77 0
-368 -78 0
-368 -79 0
-368 -80 0
-369 -65 0
-369 -66 0
-369 -67 0
-369 -68 0
-369 -69 37 0
-369 69 -37 0
-369 -70 38 0
-369 70 -38 0
-369 -71 39 0
-369 71 -39 0
-369 -72 40 0
-369 72 -40 0
-369 -73 0
-369 -74 0
-369 -75 0
-369 -76 0
-369 -77 45 0
-369 77 -45 0
-369 -78 46 0
-369 78 -46 0
-369 -79 47 0
-369 79 -47 0
-369 -80 48 0
-369 80 -48 0
-370 -65 0
-370 -66 0
-370 -67 0
-370 -68 0
-370 -69 -37 0
-370 69 37 0
-370 -70 -38 0
-370 70 38 0
-370 -71 -39 0
-370 71 39 0
-370 -72 -40 0
-370 72 40 0
-370 -73 0
-370 -74 0
-370 -75 0
-370 -76 0
-370 -77 -45 0
-370 77 45 0
-370 -78 -46 0
-370 78 46 0
-370 -79 -47 0
-370 79 47 0
-370 -80 -48 0
-370 80 48 0
-371 -65 33 0
-371 65 -33 0
-371 -66 34 0
-371 66 -34 0
-371 -67 35 0
-371 67 -35 0
-371 -68 36 0
-371 68 -36 0
-371 -69 0
-371 -70 0
-371 -71 0
-371 -72 0
-371 -73 41 0
-371 73 -41 0
-371 -74 42 0
-371 74 -42 0
-371 -75 43 0
-371 75 -43 0
-371 -76 44 0
-371 76 -44 0
-371 -77 0
-371 -78 0
-371 -79 0
-371 -80 0
-372 -65 -33 0
-372 65 33 0
-372 -66 -34 0
-372 66 34 0
-372 -67 -35 0
-372 67 35 0
-372 -68 -36 0
-372 68 36 0
-372 -69 0
-372 -70 0
-372 -71 0
-372 -72 0
-372 -73 -41 0
-372 73 41 0
-372 -74 -42 0
-372 74 42 0
-372 -75 -43 0
-372 75 43 0
-372 -76 -44 0
-372 76 44 0
-372 -77 0
-372 -78 0
-372 -79 0
-372 -80 0
-373 -65 0
-373 -66 0
-373 -67 0
-373 -68 0
-373 -69 53 0
-373 69 -53 0
-373 -70 54 0
-373 70 -54 0
-373 -71 55 0
-373 71 -55 0
-373 -72 56 0
-373 72 -56 0
-373 -73 0
-373 -74 0
-373 -75 0
-373 -76 0
-373 -77 61 0
-373 77 -61 0
-373 -78 62 0
-373 78 -62 0
-373 -79 63 0
-373 79 -63 0
-373 -80 64 0
-373 80 -64 0
-374 -65 0
-374 -66 0
-374 -67 0
-374 -68 0
-374 -69 -53 0
-374 69 53 0
-374 -70 -54 0
-374 70 54 0
-374 -71 -55 0
-374 71 55 0
-374 -72 -56 0
-374 72 56 0
-374 -73 0
-374 -74 0
-374 -75 0
-374 -76 0
-374 -77 -61 0
-374 77 61 0
-374 -78 -62 0
-374 78 62 0
-374 -79 -63 0
-374 79 63 0
-374 -80 -64 0
-374 80 64 0
-375 -65 49 0
-375 65 -49 0
-375 -66 50 0
-375 66 -50 0
-375 -67 51 0
-375 67 -51 0
-375 -68 52 0
-375 68 -52 0
-375 -69 0
-375 -70 0
-375 -71 0
-375 -72 0
-375 -73 57 0
-375 73 -57 0
-375 -74 58 0
-375 74 -58 0
-375 -75 59 0
-375 75 -59 0
-375 -76 60 0
-375 76 -60 0
-375 -77 0
-375 -78 0
-375 -79 0
-375 -80 0
-376 -65 -49 0
-376 65 49 0
-376 -66 -50 0
-376 66 50 0
-376 -67 -51 0
-376 67 51 0
-376 -68 -52 0
-376 68 52 0
-376 -69 0
-376 -70 0
-376 -71 0
-376 -72 0
-376 -73 -57 0
-376 73 57 0
-376 -74 -58 0
-376 74 58 0
-376 -75 -59 0
-376 75 59 0
-376 -76 -60 0
-376 76 60 0
-376 -77 0
-376 -78 0
-376 -79 0
-376 -80 0
-377 -65 0
-377 -66 0
-377 -67 0
-377 -68 0
-377 -69 0
-377 -70 0
-377 -71 0
-377 -72 0
-377 -73 9 0
-377 73 -9 0
-377 -74 10 0
-377 74 -10 0
-377 -75 11 0
-377 75 -11 0
-377 -76 12 0
-377 76 -12 0
-377 -77 13 0
-377 77 -13 0
-377 -78 14 0
-377 78 -14 0
-377 -79 15 0
-377 79 -15 0
-377 -80 16 0
-377 80 -16 0
-378 -65 0
-378 -66 0
-378 -67 0
-378 -68 0
-378 -69 0
-378 -70 0
-378 -71 0
-378 -72 0
-378 -73 -9 0
-378 73 9 0
-378 -74 -10 0
-378 74 10 0
-378 -75 -11 0
-378 75 11 0
-378 -76 -12 0
-378 76 12 0
-378 -77 -13 0
-378 77 13 0
-378 -78 -14 0
-378 78 14 0
-378 -79 -15 0
-378 79 15 0
-378 -80 -16 0
-378 80 16 0
-379 -65 1 0
-379 65 -1 0
-379 -66 2 0
-379 66 -2 0
-379 -67 3 0
-379 67 -3 0
-379 -68 4 0
-379 68 -4 0
-379 -69 5 0
-379 69 -5 0
-379 -70 6 0
-379 70 -6 0
-379 -71 7 0
-379 71 -7 0
-379 -72 8 0
-379 72 -8 0
-379 -73 0
-379 -74 0
-379 -75 0
-379 -76 0
-379 -77 0
-379 -78 0
-379 -79 0
-379 -80 0
-380 -65 -1 0
-380 65 1 0
-380 -66 -2 0
-380 66 2 0
-380 -67 -3 0
-380 67 3 0
-380 -68 -4 0
-380 68 4 0
-380 -69 -5 0
-380 69 5 0
-380 -70 -6 0
-380 70 6 0
-380 -71 -7 0
-380 71 7 0
-380 -72 -8 0
-380 72 8 0
-380 -73 0
-380 -74 0
-380 -75 0
-380 -76 0
-380 -77 0
-380 -78 0
-380 -79 0
-380 -80 0
-381 -65 0
-381 -66 0
-381 -67 0
-381 -68 0
-381 -69 0
-381 -70 0
-381 -71 0
-381 -72 0
-381 -73 25 0
-381 73 -25 0
-381 -74 26 0
-381 74 -26 0
-381 -75 27 0
-381 75 -27 0
-381 -76 28 0
-381 76 -28 0
-381 -77 29 0
-381 77 -29 0
-381 -78 30 0
-381 78 -30 0
-381 -79 31 0
-381 79 -31 0
-381 -80 32 0
-381 80 -32 0
-382 -65 0
-382 -66 0
-382 -67 0
-382 -68 0
-382 -69 0
-382 -70 0
-382 -71 0
-382 -72 0
-382 -73 -25 0
-382 73 25 0
-382 -74 -26 0
-382 74 26 0
-382 -75 -27 0
-382 75 27 0
-382 -76 -28 0
-382 76 28 0
-382 -77 -29 0
-382 77 29 0
-382 -78 -30 0
-382 78 30 0
-382 -79 -31 0
-382 79 31 0
-382 -80 -32 0
-382 80 32 0
-383 -65 17 0
-383 65 -17 0
-383 -66 18 0
-383 66 -18 0
-383 -67 19 0
-383 67 -19 0
-383 -68 20 0
-383 68 -20 0
-383 -69 21 0
-383 69 -21 0
-383 -70 22 0
-383 70 -22 0
-383 -71 23 0
-383 71 -23 0
-383 -72 24 0
-383 72 -24 0
-383 -73 0
-383 -74 0
-383 -75 0
-383 -76 0
-383 -77 0
-383 -78 0
-383 -79 0
-383 -80 0
-384 -65 -17 0
-384 65 17 0
-384 -66 -18 0
-384 66 18 0
-384 -67 -19 0
-384 67 19 0
-384 -68 -20 0
-384 68 20 0
-384 -69 -21 0
-384 69 21 0
-384 -70 -22 0
-384 70 22 0
-384 -71 -23 0
-384 71 23 0
-384 -72 -24 0
-384 72 24 0
-384 -73 0
-384 -74 0
-384 -75 0
-384 -76 0
-384 -77 0
-384 -78 0
-384 -79 0
-384 -80 0
-385 -65 0
-385 -66 0
-385 -67 0
-385 -68 0
-385 -69 0
-385 -70 0
-385 -71 0
-385 -72 0
-385 -73 41 0
-385 73 -41 0
-385 -74 42 0
-385 74 -42 0
-385 -75 43 0
-385 75 -43 0
-385 -76 44 0
-385 76 -44 0
-385 -77 45 0
-385 77 -45 0
-385 -78 46 0
-385 78 -46 0
-385 -79 47 0
-385 79 -47 0
-385 -80 48 0
-385 80 -48 0
-386 -65 0
-386 -66 0
-386 -67 0
-386 -68 0
-386 -69 0
-386 -70 0
-386 -71 0
-386 -72 0
-386 -73 -41 0
-386 73 41 0
-386 -74 -42 0
-386 74 42 0
-386 -75 -43 0
-386 75 43 0
-386 -76 -44 0
-386 76 44 0
-386 -77 -45 0
-386 77 45 0
-386 -78 -46 0
-386 78 46 0
-386 -79 -47 0
-386 79 47 0
-386 -80 -48 0
-386 80 48 0
-387 -65 33 0
-387 65 -33 0
-387 -66 34 0
-387 66 -34 0
-387 -67 35 0
-387 67 -35 0
-387 -68 36 0
-387 68 -36 0
-387 -69 37 0
-387 69 -37 0
-387 -70 38 0
-387 70 -38 0
-387 -71 39 0
-387 71 -39 0
-387 -72 40 0
-387 72 -40 0
-387 -73 0
-387 -74 0
-387 -75 0
-387 -76 0
-387 -77 0
-387 -78 0
-387 -79 0
-387 -80 0
-388 -65 -33 0
-388 65 33 0
-388 -66 -34 0
-388 66 34 0
-388 -67 -35 0
-388 67 35 0
-388 -68 -36 0
-388 68 36 0
-388 -69 -37 0
-388 69 37 0
-388 -70 -38 0
-388 70 38 0
-388 -71 -39 0
-388 71 39 0
-388 -72 -40 0
-388 72 40 0
-388 -73 0
-388 -74 0
-388 -75 0
-388 -76 0
-388 -77 0
-388 -78 0
-388 -79 0
-388 -80 0
-389 -65 0
-389 -66 0
-389 -67 0
-389 -68 0
-389 -69 0
-389 -70 0
-389 -71 0
-389 -72 0
-389 -73 57 0
-389 73 -57 0
-389 -74 58 0
-389 74 -58 0
-389 -75 59 0
-389 75 -59 0
-389 -76 60 0
-389 76 -60 0
-389 -77 61 0
-389 77 -61 0
-389 -78 62 0
-389 78 -62 0
-389 -79 63 0
-389 79 -63 0
-389 -80 64 0
-389 80 -64 0
-390 -65 0
-390 -66 0
-390 -67 0
-390 -68 0
-390 -69 0
-390 -70 0
-390 -71 0
-390 -72 0
-390 -73 -57 0
-390 73 57 0
-390 -74 -58 0
-390 74 58 0
-390 -75 -59 0
-390 75 59 0
-390 -76 -60 0
-390 76 60 0
-390 -77 -61 0
-390 77 61 0
-390 -78 -62 0
-390 78 62 0
-390 -79 -63 0
-390 79 63 0
-390 -80 -64 0
-390 80 64 0
-391 -65 49 0
-391 65 -49 0
-391 -66 50 0
-391 66 -50 0
-391 -67 51 0
-391 67 -51 0
-391 -68 52 0
-391 68 -52 0
-391 -69 53 0
-391 69 -53 0
-391 -70 54 0
-391 70 -54 0
-391 -71 55 0
-391 71 -55 0
-391 -72 56 0
-391 72 -56 0
-391 -73 0
-391 -74 0
-391 -75 0
-391 -76 0
-391 -77 0
-391 -78 0
-391 -79 0
-391 -80 0
-392 -65 -49 0
-392 65 49 0
-392 -66 -50 0
-392 66 50 0
-392 -67 -51 0
-392 67 51 0
-392 -68 -52 0
-392 68 52 0
-392 -69 -53 0
-392 69 53 0
-392 -70 -54 0
-392 70 54 0
-392 -71 -55 0
-392 71 55 0
-392 -72 -56 0
-392 72 56 0
-392 -73 0
-392 -74 0
-392 -75 0
-392 -76 0
-392 -77 0
-392 -78 0
-392 -79 0
-392 -80 0
-393 -65 1 0
-393 -65 17 0
-393 65 -1 -17 0
-393 -66 2 0
-393 -66 18 0
-393 66 -2 -18 0
-393 -67 3 0
-393 -67 19 0
-393 67 -3 -19 0
-393 -68 4 0
-393 -68 20 0
-393 68 -4 -20 0
-393 -69 5 0
-393 -69 21 0
-393 69 -5 -21 0
-393 -70 6 0
-393 -70 22 0
-393 70 -6 -22 0
-393 -71 7 0
-393 -71 23 0
-393 71 -7 -23 0
-393 -72 8 0
-393 -72 24 0
-393 72 -8 -24 0
-393 -73 9 0
-393 -73 25 0
-393 73 -9 -25 0
-393 -74 10 0
-393 -74 26 0
-393 74 -10 -26 0
-393 -75 11 0
-393 -75 27 0
-393 75 -11 -27 0
-393 -76 12 0
-393 -76 28 0
-393 76 -12 -28 0
-393 -77 13 0
-393 -77 29 0
-393 77 -13 -29 0
-393 -78 14 0
-393 -78 30 0
-393 78 -14 -30 0
-393 -79 15 0
-393 -79 31 0
-393 79 -15 -31 0
-393 -80 16 0
-393 -80 32 0
-393 80 -16 -32 0
-394 -65 1 0
-394 -65 -17 0
-394 65 -1 17 0
-394 -66 2 0
-394 -66 -18 0
-394 66 -2 18 0
-394 -67 3 0
-394 -67 -19 0
-394 67 -3 19 0
-394 -68 4 0
-394 -68 -20 0
-394 68 -4 20 0
-394 -69 5 0
-394 -69 -21 0
-394 69 -5 21 0
-394 -70 6 0
-394 -70 -22 0
-394 70 -6 22 0
-394 -71 7 0
-394 -71 -23 0
-394 71 -7 23 0
-394 -72 8 0
-394 -72 -24 0
-394 72 -8 24 0
-394 -73 9 0
-394 -73 -25 0
-394 73 -9 25 0
-394 -74 10 0
-394 -74 -26 0
-394 74 -10 26 0
-394 -75 11 0
-394 -75 -27 0
-394 75 -11 27 0
-394 -76 12 0
-394 -76 -28 0
-394 76 -12 28 0
-394 -77 13 0
-394 -77 -29 0
-394 77 -13 29 0
-394 -78 14 0
-394 -78 -30 0
-394 78 -14 30 0
-394 -79 15 0
-394 -79 -31 0
-394 79 -15 31 0
-394 -80 16 0
-394 -80 -32 0
-394 80 -16 32 0
-395 -65 -1 0
-395 -65 17 0
-395 65 1 -17 0
-395 -66 -2 0
-395 -66 18 0
-395 66 2 -18 0
-395 -67 -3 0
-395 -67 19 0
-395 67 3 -19 0
-395 -68 -4 0
-395 -68 20 0
-395 68 4 -20 0
-395 -69 -5 0
-395 -69 21 0
-395 69 5 -21 0
-395 -70 -6 0
-395 -70 22 0
-395 70 6 -22 0
-395 -71 -7 0
-395 -71 23 0
-395 71 7 -23 0
-395 -72 -8 0
-395 -72 24 0
-395 72 8 -24 0
-395 -73 -9 0
-395 -73 25 0
-395 73 9 -25 0
-395 -74 -10 0
-395 -74 26 0
-395 74 10 -26 0
-395 -75 -11 0
-395 -75 27 0
-395 75 11 -27 0
-395 -76 -12 0
-395 -76 28 0
-395 76 12 -28 0
-395 -77 -13 0
-395 -77 29 0
-395 77 13 -29 0
-395 -78 -14 0
-395 -78 30 0
-395 78 14 -30 0
-395 -79 -15 0
-395 -79 31 0
-395 79 15 -31 0
-395 -80 -16 0
-395 -80 32 0
-395 80 16 -32 0
-396 -65 -1 0
-396 -65 -17 0
-396 65 1 17 0
-396 -66 -2 0
-396 -66 -18 0
-396 66 2 18 0
-396 -67 -3 0
-396 -67 -19 0
-396 67 3 19 0
-396 -68 -4 0
-396 -68 -20 0
-396 68 4 20 0
-396 -69 -5 0
-396 -69 -21 0
-396 69 5 21 0
-396 -70 -6 0
-396 -70 -22 0
-396 70 6 22 0
-396 -71 -7 0
-396 -71 -23 0
-396 71 7 23 0
-396 -72 -8 0
-396 -72 -24 0
-396 72 8 24 0
-396 -73 -9 0
-396 -73 -25 0
-396 73 9 25 0
-396 -74 -10 0
-396 -74 -26 0
-396 74 10 26 0
-396 -75 -11 0
-396 -75 -27 0
-396 75 11 27 0
-396 -76 -12 0
-396 -76 -28 0
-396 76 12 28 0
-396 -77 -13 0
-396 -77 -29 0
-396 77 13 29 0
-396 -78 -14 0
-396 -78 -30 0
-396 78 14 30 0
-396 -79 -15 0
-396 -79 -31 0
-396 79 15 31 0
-396 -80 -16 0
-396 -80 -32 0
-396 80 16 32 0
-397 -65 1 0
-397 -65 33 0
-397 65 -1 -33 0
-397 -66 2 0
-397 -66 34 0
-397 66 -2 -34 0
-397 -67 3 0
-397 -67 35 0
-397 67 -3 -35 0
-397 -68 4 0
-397 -68 36 0
-397 68 -4 -36 0
-397 -69 5 0
-397 -69 37 0
-397 69 -5 -37 0
-397 -70 6 0
-397 -70 38 0
-397 70 -6 -38 0
-397 -71 7 0
-397 -71 39 0
-397 71 -7 -39 0
-397 -72 8 0
-397 -72 40 0
-397 72 -8 -40 0
-397 -73 9 0
-397 -73 41 0
-397 73 -9 -41 0
-397 -74 10 0
-397 -74 42 0
-397 74 -10 -42 0
-397 -75 11 0
-397 -75 43 0
-397 75 -11 -43 0
-397 -76 12 0
-397 -76 44 0
-397 76 -12 -44 0
-397 -77 13 0
-397 -77 45 0
-397 77 -13 -45 0
-397 -78 14 0
-397 -78 46 0
-397 78 -14 -46 0
-397 -79 15 0
-397 -79 47 0
-397 79 -15 -47 0
-397 -80 16 0
-397 -80 48 0
-397 80 -16 -48 0
-398 -65 1 0
-398 -65 -33 0
-398 65 -1 33 0
-398 -66 2 0
-398 -66 -34 0
-398 66 -2 34 0
-398 -67 3 0
-398 -67 -35 0
-398 67 -3 35 0
-398 -68 4 0
-398 -68 -36 0
-398 68 -4 36 0
-398 -69 5 0
-398 -69 -37 0
-398 69 -5 37 0
-398 -70 6 0
-398 -70 -38 0
-398 70 -6 38 0
-398 -71 7 0
-398 -71 -39 0
-398 71 -7 39 0
-398 -72 8 0
-398 -72 -40 0
-398 72 -8 40 0
-398 -73 9 0
-398 -73 -41 0
-398 73 -9 41 0
-398 -74 10 0
-398 -74 -42 0
-398 74 -10 42 0
-398 -75 11 0
-398 -75 -43 0
-398 75 -11 43 0
-398 -76 12 0
-398 -76 -44 0
-398 76 -12 44 0
-398 -77 13 0
-398 -77 -45 0
-398 77 -13 45 0
-398 -78 14 0
-398 -78 -46 0
-398 78 -14 46 0
-398 -79 15 0
-398 -79 -47 0
-398 79 -15 47 0
-398 -80 16 0
-398 -80 -48 0
-398 80 -16 48 0
-399 -65 -1 0
-399 -65 33 0
-399 65 1 -33 0
-399 -66 -2 0
-399 -66 34 0
-399 66 2 -34 0
-399 -67 -3 0
-399 -67 35 0
-399 67 3 -35 0
-399 -68 -4 0
-399 -68 36 0
-399 68 4 -36 0
-399 -69 -5 0
-399 -69 37 0
-399 69 5 -37 0
-399 -70 -6 0
-399 -70 38 0
-399 70 6 -38 0
-399 -71 -7 0
-399 -71 39 0
-399 71 7 -39 0
-399 -72 -8 0
-399 -72 40 0
-399 72 8 -40 0
-399 -73 -9 0
-399 -73 41 0
-399 73 9 -41 0
-399 -74 -10 0
-399 -74 42 0
-399 74 10 -42 0
-399 -75 -11 0
-399 -75 43 0
-399 75 11 -43 0
-399 -76 -12 0
-399 -76 44 0
-399 76 12 -44 0
-399 -77 -13 0
-399 -77 45 0
-399 77 13 -45 0
-399 -78 -14 0
-399 -78 46 0
-399 78 14 -46 0
-399 -79 -15 0
-399 -79 47 0
-399 79 15 -47 0
-399 -80 -16 0
-399 -80 48 0
-399 80 16 -48 0
-400 -65 -1 0
-400 -65 -33 0
-400 65 1 33 0
-400 -66 -2 0
-400 -66 -34 0
-400 66 2 34 0
-400 -67 -3 0
-400 -67 -35 0
-400 67 3 35 0
-400 -68 -4 0
-400 -68 -36 0
-400 68 4 36 0
-400 -69 -5 0
-400 -69 -37 0
-400 69 5 37 0
-400 -70 -6 0
-400 -70 -38 0
-400 70 6 38 0
-400 -71 -7 0
-400 -71 -39 0
-400 71 7 39 0
-400 -72 -8 0
-400 -72 -40 0
-400 72 8 40 0
-400 -73 -9 0
-400 -73 -41 0
-400 73 9 41 0
-400 -74 -10 0
-400 -74 -42 0
-400 74 10 42 0
-400 -75 -11 0
-400 -75 -43 0
-400 75 11 43 0
-400 -76 -12 0
-400 -76 -44 0
-400 76 12 44 0
-400 -77 -13 0
-400 -77 -45 0
-400 77 13 45 0
-400 -78 -14 0
-400 -78 -46 0
-400 78 14 46 0
-400 -79 -15 0
-400 -79 -47 0
-400 79 15 47 0
-400 -80 -16 0
-400 -80 -48 0
-400 80 16 48 0
-401 -65 1 0
-401 -65 49 0
-401 65 -1 -49 0
-401 -66 2 0
-401 -66 50 0
-401 66 -2 -50 0
-401 -67 3 0
-401 -67 51 0
-401 67 -3 -51 0
-401 -68 4 0
-401 -68 52 0
-401 68 -4 -52 0
-401 -69 5 0
-401 -69 53 0
-401 69 -5 -53 0
-401 -70 6 0
-401 -70 54 0
-401 70 -6 -54 0
-401 -71 7 0
-401 -71 55 0
-401 71 -7 -55 0
-401 -72 8 0
-401 -72 56 0
-401 72 -8 -56 0
-401 -73 9 0
-401 -73 57 0
-401 73 -9 -57 0
-401 -74 10 0
-401 -74 58 0
-401 74 -10 -58 0
-401 -75 11 0
-401 -75 59 0
-401 75 -11 -59 0
-401 -76 12 0
-401 -76 60 0
-401 76 -12 -60 0
-401 -77 13 0
-401 -77 61 0
-401 77 -13 -61 0
-401 -78 14 0
-401 -78 62 0
-401 78 -14 -62 0
-401 -79 15 0
-401 -79 63 0
-401 79 -15 -63 0
-401 -80 16 0
-401 -80 64 0
-401 80 -16 -64 0
-402 -65 1 0
-402 -65 -49 0
-402 65 -1 49 0
-402 -66 2 0
-402 -66 -50 0
-402 66 -2 50 0
-402 -67 3 0
-402 -67 -51 0
-402 67 -3 51 0
-402 -68 4 0
-402 -68 -52 0
-402 68 -4 52 0
-402 -69 5 0
-402 -69 -53 0
-402 69 -5 53 0
-402 -70 6 0
-402 -70 -54 0
-402 70 -6 54 0
-402 -71 7 0
-402 -71 -55 0
-402 71 -7 55 0
-402 -72 8 0
-402 -72 -56 0
-402 72 -8 56 0
-402 -73 9 0
-402 -73 -57 0
-402 73 -9 57 0
-402 -74 10 0
-402 -74 -58 0
-402 74 -10 58 0
-402 -75 11 0
-402 -75 -59 0
-402 75 -11 59 0
-402 -76 12 0
-402 -76 -60 0
-402 76 -12 60 0
-402 -77 13 0
-402 -77 -61 0
-402 77 -13 61 0
-402 -78 14 0
-402 -78 -62 0
-402 78 -14 62 0
-402 -79 15 0
-402 -79 -63 0
-402 79 -15 63 0
-402 -80 16 0
-402 -80 -64 0
-402 80 -16 64 0
-403 -65 -1 0
-403 -65 49 0
-403 65 1 -49 0
-403 -66 -2 0
-403 -66 50 0
-403 66 2 -50 0
-403 -67 -3 0
-403 -67 51 0
-403 67 3 -51 0
-403 -68 -4 0
-403 -68 52 0
-403 68 4 -52 0
-403 -69 -5 0
-403 -69 53 0
-403 69 5 -53 0
-403 -70 -6 0
-403 -70 54 0
-403 70 6 -54 0
-403 -71 -7 0
-403 -71 55 0
-403 71 7 -55 0
-403 -72 -8 0
-403 -72 56 0
-403 72 8 -56 0
-403 -73 -9 0
-403 -73 57 0
-403 73 9 -57 0
-403 -74 -10 0
-403 -74 58 0
-403 74 10 -58 0
-403 -75 -11 0
-403 -75 59 0
-403 75 11 -59 0
-403 -76 -12 0
-403 -76 60 0
-403 76 12 -60 0
-403 -77 -13 0
-403 -77 61 0
-403 77 13 -61 0
-403 -78 -14 0
-403 -78 62 0
-403 78 14 -62 0
-403 -79 -15 0
-403 -79 63 0
-403 79 15 -63 0
-403 -80 -16 0
-403 -80 64 0
-403 80 16 -64 0
-404 -65 -1 0
-404 -65 -49 0
-404 65 1 49 0
-404 -66 -2 0
-404 -66 -50 0
-404 66 2 50 0
-404 -67 -3 0
-404 -67 -51 0
-404 67 3 51 0
-404 -68 -4 0
-404 -68 -52 0
-404 68 4 52 0
-404 -69 -5 0
-404 -69 -53 0
-404 69 5 53 0
-404 -70 -6 0
-404 -70 -54 0
-404 70 6 54 0
-404 -71 -7 0
-404 -71 -55 0
-404 71 7 55 0
-404 -72 -8 0
-404 -72 -56 0
-404 72 8 56 0
-404 -73 -9 0
-404 -73 -57 0
-404 73 9 57 0
-404 -74 -10 0
-404 -74 -58 0
-404 74 10 58 0
-404 -75 -11 0
-404 -75 -59 0
-404 75 11 59 0
-404 -76 -12 0
-404 -76 -60 0
-404 76 12 60 0
-404 -77 -13 0
-404 -77 -61 0
-404 77 13 61 0
-404 -78 -14 0
-404 -78 -62 0
-404 78 14 62 0
-404 -79 -15 0
-404 -79 -63 0
-404 79 15 63 0
-404 -80 -16 0
-404 -80 -64 0
-404 80 16 64 0
-405 -65 17 0
-405 -65 33 0
-405 65 -17 -33 0
-405 -66 18 0
-405 -66 34 0
-405 66 -18 -34 0
-405 -67 19 0
-405 -67 35 0
-405 67 -19 -35 0
-405 -68 20 0
-405 -68 36 0
-405 68 -20 -36 0
-405 -69 21 0
-405 -69 37 0
-405 69 -21 -37 0
-405 -70 22 0
-405 -70 38 0
-405 70 -22 -38 0
-405 -71 23 0
-405 -71 39 0
-405 71 -23 -39 0
-405 -72 24 0
-405 -72 40 0
-405 72 -24 -40 0
-405 -73 25 0
-405 -73 41 0
-405 73 -25 -41 0
-405 -74 26 0
-405 -74 42 0
-405 74 -26 -42 0
-405 -75 27 0
-405 -75 43 0
-405 75 -27 -43 0
-405 -76 28 0
-405 -76 44 0
-405 76 -28 -44 0
-405 -77 29 0
-405 -77 45 0
-405 77 -29 -45 0
-405 -78 30 0
-405 -78 46 0
-405 78 -30 -46 0
-405 -79 31 0
-405 -79 47 0
-405 79 -31 -47 0
-405 -80 32 0
-405 -80 48 0
-405 80 -32 -48 0
-406 -65 17 0
-406 -65 -33 0
-406 65 -17 33 0
-406 -66 18 0
-406 -66 -34 0
-406 66 -18 34 0
-406 -67 19 0
-406 -67 -35 0
-406 67 -19 35 0
-406 -68 20 0
-406 -68 -36 0
-406 68 -20 36 0
-406 -69 21 0
-406 -69 -37 0
-406 69 -21 37 0
-406 -70 22 0
-406 -70 -38 0
-406 70 -22 38 0
-406 -71 23 0
-406 -71 -39 0
-406 71 -23 39 0
-406 -72 24 0
-406 -72 -40 0
-406 72 -24 40 0
-406 -73 25 0
-406 -73 -41 0
-406 73 -25 41 0
-406 -74 26 0
-406 -74 -42 0
-406 74 -26 42 0
-406 -75 27 0
-406 -75 -43 0
-406 75 -27 43 0
-406 -76 28 0
-406 -76 -44 0
-406 76 -28 44 0
-406 -77 29 0
-406 -77 -45 0
-406 77 -29 45 0
-406 -78 30 0
-406 -78 -46 0
-406 78 -30 46 0
-406 -79 31 0
-406 -79 -47 0
-406 79 -31 47 0
-406 -80 32 0
-406 -80 -48 0
-406 80 -32 48 0
-407 -65 -17 0
-407 -65 33 0
-407 65 17 -33 0
-407 -66 -18 0
-407 -66 34 0
-407 66 18 -34 0
-407 -67 -19 0
-407 -67 35 0
-407 67 19 -35 0
-407 -68 -20 0
-407 -68 36 0
-407 68 20 -36 0
-407 -69 -21 0
-407 -69 37 0
-407 69 21 -37 0
-407 -70 -22 0
-407 -70 38 0
-407 70 22 -38 0
-407 -71 -23 0
-407 -71 39 0
-407 71 23 -39 0
-407 -72 -24 0
-407 -72 40 0
-407 72 24 -40 0
-407 -73 -25 0
-407 -73 41 0
-407 73 25 -41 0
-407 -74 -26 0
-407 -74 42 0
-407 74 26 -42 0
-407 -75 -27 0
-407 -75 43 0
-407 75 27 -43 0
-407 -76 -28 0
-407 -76 44 0
-407 76 28 -44 0
-407 -77 -29 0
-407 -77 45 0
-407 77 29 -45 0
-407 -78 -30 0
-407 -78 46 0
-407 78 30 -46 0
-407 -79 -31 0
-407 -79 47 0
-407 79 31 -47 0
-407 -80 -32 0
-407 -80 48 0
-407 80 32 -48 0
-408 -65 -17 0
-408 -65 -33 0
-408 65 17 33 0
-408 -66 -18 0
-408 -66 -34 0
-408 66 18 34 0
-408 -67 -19 0
-408 -67 -35 0
-408 67 19 35 0
-408 -68 -20 0
-408 -68 -36 0
-408 68 20 36 0
-408 -69 -21 0
-408 -69 -37 0
-408 69 21 37 0
-408 -70 -22 0
-408 -70 -38 0
-408 70 22 38 0
-408 -71 -23 0
-408 -71 -39 0
-408 71 23 39 0
-408 -72 -24 0
-408 -72 -40 0
-408 72 24 40 0
-408 -73 -25 0
-408 -73 -41 0
-408 73 25 41 0
-408 -74 -26 0
-408 -74 -42 0
-408 74 26 42 0
-408 -75 -27 0
-408 -75 -43 0
-408 75 27 43 0
-408 -76 -28 0
-408 -76 -44 0
-408 76 28 44 0
-408 -77 -29 0
-408 -77 -45 0
-408 77 29 45 0
-408 -78 -30 0
-408 -78 -46 0
-408 78 30 46 0
-408 -79 -31 0
-408 -79 -47 0
-408 79 31 47 0
-408 -80 -32 0
-408 -80 -48 0
-408 80 32 48 0
-409 -65 17 0
-409 -65 49 0
-409 65 -17 -49 0
-409 -66 18 0
-409 -66 50 0
-409 66 -18 -50 0
-409 -67 19 0
-409 -67 51 0
-409 67 -19 -51 0
-409 -68 20 0
-409 -68 52 0
-409 68 -20 -52 0
-409 -69 21 0
-409 -69 53 0
-409 69 -21 -53 0
-409 -70 22 0
-409 -70 54 0
-409 70 -22 -54 0
-409 -71 23 0
-409 -71 55 0
-409 71 -23 -55 0
-409 -72 24 0
-409 -72 56 0
-409 72 -24 -56 0
-409 -73 25 0
-409 -73 57 0
-409 73 -25 -57 0
-409 -74 26 0
-409 -74 58 0
-409 74 -26 -58 0
-409 -75 27 0
-409 -75 59 0
-409 75 -27 -59 0
-409 -76 28 0
-409 -76 60 0
-409 76 -28 -60 0
-409 -77 29 0
-409 -77 61 0
-409 77 -29 -61 0
-409 -78 30 0
-409 -78 62 0
-409 78 -30 -62 0
-409 -79 31 0
-409 -79 63 0
-409 79 -31 -63 0
-409 -80 32 0
-409 -80 64 0
-409 80 -32 -64 0
-410 -65 17 0
-410 -65 -49 0
-410 65 -17 49 0
-410 -66 18 0
-410 -66 -50 0
-410 66 -18 50 0
-410 -67 19 0
-410 -67 -51 0
-410 67 -19 51 0
-410 -68 20 0
-410 -68 -52 0
-410 68 -20 52 0
-410 -69 21 0
-410 -69 -53 0
-410 69 -21 53 0
-410 -70 22 0
-410 -70 -54 0
-410 70 -22 54 0
-410 -71 23 0
-410 -71 -55 0
-410 71 -23 55 0
-410 -72 24 0
-410 -72 -56 0
-410 72 -24 56 0
-410 -73 25 0
-410 -73 -57 0
-410 73 -25 57 0
-410 -74 26 0
-410 -74 -58 0
-410 74 -26 58 0
-410 -75 27 0
-410 -75 -59 0
-410 75 -27 59 0
-410 -76 28 0
-410 -76 -60 0
-410 76 -28 60 0
-410 -77 29 0
-410 -77 -61 0
-410 77 -29 61 0
-410 -78 30 0
-410 -78 -62 0
-410 78 -30 62 0
-410 -79 31 0
-410 -79 -63 0
-410 79 -31 63 0
-410 -80 32 0
-410 -80 -64 0
-410 80 -32 64 0
-411 -65 -17 0
-411 -65 49 0
-411 65 17 -49 0
-411 -66 -18 0
-411 -66 50 0
-411 66 18 -50 0
-411 -67 -19 0
-411 -67 51 0
-411 67 19 -51 0
-411 -68 -20 0
-411 -68 52 0
-411 68 20 -52 0
-411 -69 -21 0
-411 -69 53 0
-411 69 21 -53 0
-411 -70 -22 0
-411 -70 54 0
-411 70 22 -54 0
-411 -71 -23 0
-411 -71 55 0
-411 71 23 -55 0
-411 -72 -24 0
-411 -72 56 0
-411 72 24 -56 0
-411 -73 -25 0
-411 -73 57 0
-411 73 25 -57 0
-411 -74 -26 0
-411 -74 58 0
-411 74 26 -58 0
-411 -75 -27 0
-411 -75 59 0
-411 75 27 -59 0
-411 -76 -28 0
-411 -76 60 0
-411 76 28 -60 0
-411 -77 -29 0
-411 -77 61 0
-411 77 29 -61 0
-411 -78 -30 0
-411 -78 62 0
-411 78 30 -62 0
-411 -79 -31 0
-411 -79 63 0
-411 79 31 -63 0
-411 -80 -32 0
-411 -80 64 0
-411 80 32 -64 0
-412 -65 -17 0
-412 -65 -49 0
-412 65 17 49 0
-412 -66 -18 0
-412 -66 -50 0
-412 66 18 50 0
-412 -67 -19 0
-412 -67 -51 0
-412 67 19 51 0
-412 -68 -20 0
-412 -68 -52 0
-412 68 20 52 0
-412 -69 -21 0
-412 -69 -53 0
-412 69 21 53 0
-412 -70 -22 0
-412 -70 -54 0
-412 70 22 54 0
-412 -71 -23 0
-412 -71 -55 0
-412 71 23 55 0
-412 -72 -24 0
-412 -72 -56 0
-412 72 24 56 0
-412 -73 -25 0
-412 -73 -57 0
-412 73 25 57 0
-412 -74 -26 0
-412 -74 -58 0
-412 74 26 58 0
-412 -75 -27 0
-412 -75 -59 0
-412 75 27 59 0
-412 -76 -28 0
-412 -76 -60 0
-412 76 28 60 0
-412 -77 -29 0
-412 -77 -61 0
-412 77 29 61 0
-412 -78 -30 0
-412 -78 -62 0
-412 78 30 62 0
-412 -79 -31 0
-412 -79 -63 0
-412 79 31 63 0
-412 -80 -32 0
-412 -80 -64 0
-412 80 32 64 0
-413 -65 33 0
-413 -65 49 0
-413 65 -33 -49 0
-413 -66 34 0
-413 -66 50 0
-413 66 -34 -50 0
-413 -67 35 0
-413 -67 51 0
-413 67 -35 -51 0
-413 -68 36 0
-413 -68 52 0
-413 68 -36 -52 0
-413 -69 37 0
-413 -69 53 0
-413 69 -37 -53 0
-413 -70 38 0
-413 -70 54 0
-413 70 -38 -54 0
-413 -71 39 0
-413 -71 55 0
-413 71 -39 -55 0
-413 -72 40 0
-413 -72 56 0
-413 72 -40 -56 0
-413 -73 41 0
-413 -73 57 0
-413 73 -41 -57 0
-413 -74 42 0
-413 -74 58 0
-413 74 -42 -58 0
-413 -75 43 0
-413 -75 59 0
-413 75 -43 -59 0
-413 -76 44 0
-413 -76 60 0
-413 76 -44 -60 0
-413 -77 45 0
-413 -77 61 0
-413 77 -45 -61 0
-413 -78 46 0
-413 -78 62 0
-413 78 -46 -62 0
-413 -79 47 0
-413 -79 63 0
-413 79 -47 -63 0
-413 -80 48 0
-413 -80 64 0
-413 80 -48 -64 0
-414 -65 33 0
-414 -65 -49 0
-414 65 -33 49 0
-414 -66 34 0
-414 -66 -50 0
-414 66 -34 50 0
-414 -67 35 0
-414 -67 -51 0
-414 67 -35 51 0
-414 -68 36 0
-414 -68 -52 0
-414 68 -36 52 0
-414 -69 37 0
-414 -69 -53 0
-414 69 -37 53 0
-414 -70 38 0
-414 -70 -54 0
-414 70 -38 54 0
-414 -71 39 0
-414 -71 -55 0
-414 71 -39 55 0
-414 -72 40 0
-414 -72 -56 0
-414 72 -40 56 0
-414 -73 41 0
-414 -73 -57 0
-414 73 -41 57 0
-414 -74 42 0
-414 -74 -58 0
-414 74 -42 58 0
-414 -75 43 0
-414 -75 -59 0
-414 75 -43 59 0
-414 -76 44 0
-414 -76 -60 0
-414 76 -44 60 0
-414 -77 45 0
-414 -77 -61 0
-414 77 -45 61 0
-414 -78 46 0
-414 -78 -62 0
-414 78 -46 62 0
-414 -79 47 0
-414 -79 -63 0
-414 79 -47 63 0
-414 -80 48 0
-414 -80 -64 0
-414 80 -48 64 0
-415 -65 -33 0
-415 -65 49 0
-415 65 33 -49 0
-415 -66 -34 0
-415 -66 50 0
-415 66 34 -50 0
-415 -67 -35 0
-415 -67 51 0
-415 67 35 -51 0
-415 -68 -36 0
-415 -68 52 0
-415 68 36 -52 0
-415 -69 -37 0
-415 -69 53 0
-415 69 37 -53 0
-415 -70 -38 0
-415 -70 54 0
-415 70 38 -54 0
-415 -71 -39 0
-415 -71 55 0
-415 71 39 -55 0
-415 -72 -40 0
-415 -72 56 0
-415 72 40 -56 0
-415 -73 -41 0
-415 -73 57 0
-415 73 41 -57 0
-415 -74 -42 0
-415 -74 58 0
-415 74 42 -58 0
-415 -75 -43 0
-415 -75 59 0
-415 75 43 -59 0
-415 -76 -44 0
-415 -76 60 0
-415 76 44 -60 0
-415 -77 -45 0
-415 -77 61 0
-415 77 45 -61 0
-415 -78 -46 0
-415 -78 62 0
-415 78 46 -62 0
-415 -79 -47 0
-415 -79 63 0
-415 79 47 -63 0
-415 -80 -48 0
-415 -80 64 0
-415 80 48 -64 0
-416 -65 -33 0
-416 -65 -49 0
-416 65 33 49 0
-416 -66 -34 0
-416 -66 -50 0
-416 66 34 50 0
-416 -67 -35 0
-416 -67 -51 0
-416 67 35 51 0
-416 -68 -36 0
-416 -68 -52 0
-416 68 36 52 0
-416 -69 -37 0
-416 -69 -53 0
-416 69 37 53 0
-416 -70 -38 0
-416 -70 -54 0
-416 70 38 54 0
-416 -71 -39 0
-416 -71 -55 0
-416 71 39 55 0
-416 -72 -40 0
-416 -72 -56 0
-416 72 40 56 0
-416 -73 -41 0
-416 -73 -57 0
-416 73 41 57 0
-416 -74 -42 0
-416 -74 -58 0
-416 74 42 58 0
-416 -75 -43 0
-416 -75 -59 0
-416 75 43 59 0
-416 -76 -44 0
-416 -76 -60 0
-416 76 44 60 0
-416 -77 -45 0
-416 -77 -61 0
-416 77 45 61 0
-416 -78 -46 0
-416 -78 -62 0
-416 78 46 62 0
-416 -79 -47 0
-416 -79 -63 0
-416 79 47 63 0
-416 -80 -48 0
-416 -80 -64 0
-416 80 48 64 0
417 418 419 420 421 422 423 424 425 426 427 428 429 430 431 432 433 434 435 436 437 438 439 440 441 442 443 444 445 446 447 448 449 450 451 452 453 454 455 456 457 458 459 460 461 462 463 464 465 466 467 468 469 470 471 472 473 474 475 476 477 478 479 480 481 482 483 484 485 486 487 488 489 490 491 492 493 494 495 496 497 498 499 500 501 502 503 504 505 506 507 508 509 510 511 512 513 514 515 516 517 518 519 520 521 522 523 524 525 526 527 528 529 530 531 532 533 534 535 536 537 538 539 540 541 542 543 544 545 546 547 548 549 550 551 552 553 554 555 556 557 558 559 560 0
-417 -418 0
-417 -419 0
-417 -420 0
-417 -421 0
-417 -422 0
-417 -423 0
-417 -424 0
-417 -425 0
-417 -426 0
-417 -427 0
-417 -428 0
-417 -429 0
-417 -430 0
-417 -431 0
-417 -432 0
-417 -433 0
-417 -434 0
-417 -435 0
-417 -436 0
-417 -437 0
-417 -438 0
-417 -439 0
-417 -440 0
-417 -441 0
-417 -442 0
-417 -443 0
-417 -444 0
-417 -445 0
-417 -446 0
-417 -447 0
-417 -448 0
-417 -449 0
-417 -450 0
-417 -451 0
-417 -452 0
-417 -453 0
-417 -454 0
-417 -455 0
-417 -456 0
-417 -457 0
-417 -458 0
-417 -459 0
-417 -460 0
-417 -461 0
-417 -462 0
-417 -463 0
-417 -464 0
-417 -465 0
-417 -466 0
-417 -467 0
-417 -468 0
-417 -469 0
-417 -470 0
-417 -471 0
-417 -472 0
-417 -473 0
-417 -474 0
-417 -475 0
-417 -476 0
-417 -477 0
-417 -478 0
-417 -479 0
-417 -480 0
-417 -481 0
-417 -482 0
-417 -483 0
-417 -484 0
-417 -485 0
-417 -486 0
-417 -487 0
-417 -488 0
-417 -489 0
-417 -490 0
-417 -491 0
-417 -492 0
-417 -493 0
-417 -494 0
-417 -495 0
-417 -496 0
-417 -497 0
-417 -498 0
-417 -499 0
-417 -500 0
-417 -501 0
-417 -502 0
-417 -503 0
-417 -504 0
-417 -505 0
-417 -506 0
-417 -507 0
-417 -508 0
-417 -509 0
-417 -510 0
-417 -511 0
-417 -512 0
-417 -513 0
-417 -514 0
-417 -515 0
-417 -516 0
-417 -517 0
-417 -518 0
-417 -519 0
-417 -520 0
-417 -521 0
-417 -522 0
-417 -523 0
-417 -524 0
-417 -525 0
-417 -526 0
-417 -527 0
-417 -528 0
-417 -529 0
-417 -530 0
-417 -531 0
-417 -532 0
-417 -533 0
-417 -534 0
-417 -535 0
-417 -536 0
-417 -537 0
-417 -538 0
-417 -539 0
-417 -540 0
-417 -541 0
-417 -542 0
-417 -543 0
-417 -544 0
-417 -545 0
-417 -546 0
-417 -547 0
-417 -548 0
-417 -549 0
-417 -550 0
-417 -551 0
-417 -552 0
-417 -553 0
-417 -554 0
-417 -555 0
-417 -556 0
-417 -557 0
-417 -558 0
-417 -559 0
-417 -560 0
-418 -419 0
-418 -420 0
-418 -421 0
-418 -422 0
-418 -423 0
-418 -424 0
-418 -425 0
-418 -426 0
-418 -427 0
-418 -428 0
-418 -429 0
-418 -430 0
-418 -431 0
-418 -432 0
-418 -433 0
-418 -434 0
-418 -435 0
-418 -436 0
-418 -437 0
-418 -438 0
-418 -439 0
-418 -440 0
-418 -441 0
-418 -442 0
-418 -443 0
-418 -444 0
-418 -445 0
-418 -446 0
-418 -447 0
-418 -448 0
-418 -449 0
-418 -450 0
-418 -451 0
-418 -452 0
-418 -453 0
-418 -454 0
-418 -455 0
-418 -456 0
-418 -457 0
-418 -458 0
-418 -459 0
-418 -460 0
-418 -461 0
-418 -462 0
-418 -463 0
-418 -464 0
-418 -465 0
-418 -466 0
-418 -467 0
-418 -468 0
-418 -469 0
-418 -470 0
-418 -471 0
-418 -472 0
-418 -473 0
-418 -474 0
-418 -475 0
-418 -476 0
-418 -477 0
-418 -478 0
-418 -479 0
-418 -480 0
-418 -481 0
-418 -482 0
-418 -483 0
-418 -484 0
-418 -485 0
-418 -486 0
-418 -487 0
-418 -488 0
-418 -489 0
-418 -490 0
-418 -491 0
-418 -492 0
-418 -493 0
-418 -494 0
-418 -495 0
-418 -496 0
-418 -497 0
-418 -498 0
-418 -499 0
-418 -500 0
-418 -501 0
-418 -502 0
-418 -503 0
-418 -504 0
-418 -505 0
-418 -506 0
-418 -507 0
-418 -508 0
-418 -509 0
-418 -510 0
-418 -511 0
-418 -512 0
-418 -513 0
-418 -514 0
-418 -515 0
-418 -516 0
-418 -517 0
-418 -518 0
-418 -519 0
-418 -520 0
-418 -521 0
-418 -522 0
-418 -523 0
-418 -524 0
-418 -525 0
-418 -526 0
-418 -527 0
-418 -528 0
-418 -529 0
-418 -530 0
-418 -531 0
-418 -532 0
-418 -533 0
-418 -534 0
-418 -535 0
-418 -536 0
-418 -537 0
-418 -538 0
-418 -539 0
-418 -540 0
-418 -541 0
-418 -542 0
-418 -543 0
-418 -544 0
-418 -545 0
-418 -546 0
-418 -547 0
-418 -548 0
-418 -549 0
-418 -550 0
-418 -551 0
-418 -552 0
-418 -553 0
-418 -554 0
-418 -555 0
-418 -556 0
-418 -557 0
-418 -558 0
-418 -559 0
-418 -560 0
-419 -420 0
-419 -421 0
-419 -422 0
-419 -423 0
-419 -424 0
-419 -425 0
-419 -426 0
-419 -427 0
-419 -428 0
-419 -429 0
-419 -430 0
-419 -431 0
-419 -432 0
-419 -433 0
-419 -434 0
-419 -435 0
-419 -436 0
-419 -437 0
-419 -438 0
-419 -439 0
-419 -440 0
-419 -441 0
-419 -442 0
-419 -443 0
-419 -444 0
-419 -445 0
-419 -446 0
-419 -447 0
-419 -448 0
-419 -449 0
-419 -450 0
-419 -451 0
-419 -452 0
-419 -453 0
-419 -454 0
-419 -455 0
-419 -456 0
-419 -457 0
-419 -458 0
-419 -459 0
-419 -460 0
-419 -461 0
-419 -462 0
-419 -463 0
-419 -464 0
-419 -465 0
-419 -466 0
-419 -467 0
-419 -468 0
-419 -469 0
-419 -470 0
-419 -471 0
-419 -472 0
-419 -473 0
-419 -474 0
-419 -475 0
-419 -476 0
-419 -477 0
-419 -478 0
-419 -479 0
-419 -480 0
-419 -481 0
-419 -482 0
-419 -483 0
-419 -484 0
-419 -485 0
-419 -486 0
-419 -487 0
-419 -488 0
-419 -489 0
-419 -490 0
-419 -491 0
-419 -492 0
-419 -493 0
-419 -494 0
-419 -495 0
-419 -496 0
-419 -497 0
-419 -498 0
-419 -499 0
-419 -500 0
-419 -501 0
-419 -502 0
-419 -503 0
-419 -504 0
-419 -505 0
-419 -506 0
-419 -507 0
-419 -508 0
-419 -509 0
-419 -510 0
-419 -511 0
-419 -512 0
-419 -513 0
-419 -514 0
-419 -515 0
-419 -516 0
-419 -517 0
-419 -518 0
-419 -519 0
-419 -520 0
-419 -521 0
-419 -522 0
-419 -523 0
-419 -524 0
-419 -525 0
-419 -526 0
-419 -527 0
-419 -528 0
-419 -529 0
-419 -530 0
-419 -531 0
-419 -532 0
-419 -533 0
-419 -534 0
-419 -535 0
-419 -536 0
-419 -537 0
-419 -538 0
-419 -539 0
-419 -540 0
-419 -541 0
-419 -542 0
-419 -543 0
-419 -544 0
-419 -545 0
-419 -546 0
-419 -547 0
-419 -548 0
-419 -549 0
-419 -550 0
-419 -551 0
-419 -552 0
-419 -553 0
-419 -554 0
-419 -555 0
-419 -556 0
-419 -557 0
-419 -558 0
-419 -559 0
-419 -560 0
-420 -421 0
-420 -422 0
-420 -423 0
-420 -424 0
-420 -425 0
-420 -426 0
-420 -427 0
-420 -428 0
-420 -429 0
-420 -430 0
-420 -431 0
-420 -432 0
-420 -433 0
-420 -434 0
-420 -435 0
-420 -436 0
-420 -437 0
-420 -438 0
-420 -439 0
-420 -440 0
-420 -441 0
-420 -442 0
-420 -443 0
-420 -444 0
-420 -445 0
-420 -446 0
-420 -447 0
-420 -448 0
-420 -449 0
-420 -450 0
-420 -451 0
-420 -452 0
-420 -453 0
-420 -454 0
-420 -455 0
-420 -456 0
-420 -457 0
-420 -458 0
-420 -459 0
-420 -460 0
-420 -461 0
-420 -462 0
-420 -463 0
-420 -464 0
-420 -465 0
-420 -466 0
-420 -467 0
-420 -468 0
-420 -469 0
-420 -470 0
-420 -471 0
-420 -472 0
-420 -473 0
-420 -474 0
-420 -475 0
-420 -476 0
-420 -477 0
-420 -478 0
-420 -479 0
-420 -480 0
-420 -481 0
-420 -482 0
-420 -483 0
-420 -484 0
-420 -485 0
-420 -486 0
-420 -487 0
-420 -488 0
-420 -489 0
-420 -490 0
-420 -491 0
-420 -492 0
-420 -493 0
-420 -494 0
-420 -495 0
-420 -496 0
-420 -497 0
-420 -498 0
-420 -499 0
-420 -500 0
-420 -501 0
-420 -502 0
-420 -503 0
-420 -504 0
-420 -505 0
-420 -506 0
-420 -507 0
-420 -508 0
-420 -509 0
-420 -510 0
-420 -511 0
-420 -512 0
-420 -513 0
-420 -514 0
-420 -515 0
-420 -516 0
-420 -517 0
-420 -518 0
-420 -519 0
-420 -520 0
-420 -521 0
-420 -522 0
-420 -523 0
-420 -524 0
-420 -525 0
-420 -526 0
-420 -527 0
-420 -528 0
-420 -529 0
-420 -530 0
-420 -531 0
-420 -532 0
-420 -533 0
-420 -534 0
-420 -535 0
-420 -536 0
-420 -537 0
-420 -538 0
-420 -539 0
-420 -540 0
-420 -541 0
-420 -542 0
-420 -543 0
-420 -544 0
-420 -545 0
-420 -546 0
-420 -547 0
-420 -548 0
-420 -549 0
-420 -550 0
-420 -551 0
-420 -552 0
-420 -553 0
-420 -554 0
-420 -555 0
-420 -556 0
-420 -557 0
-420 -558 0
-420 -559 0
-420 -560 0
-421 -422 0
-421 -423 0
-421 -424 0
-421 -425 0
-421 -426 0
-421 -427 0
-421 -428 0
-421 -429 0
-421 -430 0
-421 -431 0
-421 -432 0
-421 -433 0
-421 -434 0
-421 -435 0
-421 -436 0
-421 -437 0
-421 -438 0
-421 -439 0
-421 -440 0
-421 -441 0
-421 -442 0
-421 -443 0
-421 -444 0
-421 -445 0
-421 -446 0
-421 -447 0
-421 -448 0
-421 -449 0
-421 -450 0
-421 -451 0
-421 -452 0
-421 -453 0
-421 -454 0
-421 -455 0
-421 -456 0
-421 -457 0
-421 -458 0
-421 -459 0
-421 -460 0
-421 -461 0
-421 -462 0
-421 -463 0
-421 -464 0
-421 -465 0
-421 -466 0
-421 -467 0
-421 -468 0
-421 -469 0
-421 -470 0
-421 -471 0
-421 -472 0
-421 -473 0
-421 -474 0
-421 -475 0
-421 -476 0
-421 -477 0
-421 -478 0
-421 -479 0
-421 -480 0
-421 -481 0
-421 -482 0
-421 -483 0
-421 -484 0
-421 -485 0
-421 -486 0
-421 -487 0
-421 -488 0
-421 -489 0
-421 -490 0
-421 -491 0
-421 -492 0
-421 -493 0
-421 -494 0
-421 -495 0
-421 -496 0
-421 -497 0
-421 -498 0
-421 -499 0
-421 -500 0
-421 -501 0
-421 -502 0
-421 -503 0
-421 -504 0
-421 -505 0
-421 -506 0
-421 -507 0
-421 -508 0
-421 -509 0
-421 -510 0
-421 -511 0
-421 -512 0
-421 -513 0
-421 -514 0
-421 -515 0
-421 -516 0
-421 -517 0
-421 -518 0
-421 -519 0
-421 -520 0
-421 -521 0
-421 -522 0
-421 -523 0
-421 -524 0
-421 -525 0
-421 -526 0
-421 -527 0
-421 -528 0
-421 -529 0
-421 -530 0
-421 -531 0
-421 -532 0
-421 -533 0
-421 -534 0
-421 -535 0
-421 -536 0
-421 -537 0
-421 -538 0
-421 -539 0
-421 -540 0
-421 -541 0
-421 -542 0
-421 -543 0
-421 -544 0
-421 -545 0
-421 -546 0
-421 -547 0
-421 -548 0
-421 -549 0
-421 -550 0
-421 -551 0
-421 -552 0
-421 -553 0
-421 -554 0
-421 -555 0
-421 -556 0
-421 -557 0
-421 -558 0
-421 -559 0
-421 -560 0
-422 -423 0
-422 -424 0
-422 -425 0
-422 -426 0
-422 -427 0
-422 -428 0
-422 -429 0
-422 -430 0
-422 -431 0
-422 -432 0
-422 -433 0
-422 -434 0
-422 -435 0
-422 -436 0
-422 -437 0
-422 -438 0
-422 -439 0
-422 -440 0
-422 -441 0
-422 -442 0
-422 -443 0
-422 -444 0
-422 -445 0
-422 -446 0
-422 -447 0
-422 -448 0
-422 -449 0
-422 -450 0
-422 -451 0
-422 -452 0
-422 -453 0
-422 -454 0
-422 -455 0
-422 -456 0
-422 -457 0
-422 -458 0
-422 -459 0
-422 -460 0
-422 -461 0
-422 -462 0
-422 -463 0
-422 -464 0
-422 -465 0
-422 -466 0
-422 -467 0
-422 -468 0
-422 -469 0
-422 -470 0
-422 -471 0
-422 -472 0
-422 -473 0
-422 -474 0
-422 -475 0
-422 -476 0
-422 -477 0
-422 -478 0
-422 -479 0
-422 -480 0
-422 -481 0
-422 -482 0
-422 -483 0
-422 -484 0
-422 -485 0
-422 -486 0
-422 -487 0
-422 -488 0
-422 -489 0
-422 -490 0
-422 -491 0
-422 -492 0
-422 -493 0
-422 -494 0
-422 -495 0
-422 -496 0
-422 -497 0
-422 -498 0
-422 -499 0
-422 -500 0
-422 -501 0
-422 -502 0
-422 -503 0
-422 -504 0
-422 -505 0
-422 -506 0
-422 -507 0
-422 -508 0
-422 -509 0
-422 -510 0
-422 -511 0
-422 -512 0
-422 -513 0
-422 -514 0
-422 -515 0
-422 -516 0
-422 -517 0
-422 -518 0
-422 -519 0
-422 -520 0
-422 -521 0
-422 -522 0
-422 -523 0
-422 -524 0
-422 -525 0
-422 -526 0
-422 -527 0
-422 -528 0
-422 -529 0
-422 -530 0
-422 -531 0
-422 -532 0
-422 -533 0
-422 -534 0
-422 -535 0
-422 -536 0
-422 -537 0
-422 -538 0
-422 -539 0
-422 -540 0
-422 -541 0
-422 -542 0
-422 -543 0
-422 -544 0
-422 -545 0
-422 -546 0
-422 -547 0
-422 -548 0
-422 -549 0
-422 -550 0
-422 -551 0
-422 -552 0
-422 -553 0
-422 -554 0
-422 -555 0
-422 -556 0
-422 -557 0
-422 -558 0
-422 -559 0
-422 -560 0
-423 -424 0
-423 -425 0
-423 -426 0
-423 -427 0
-423 -428 0
-423 -429 0
-423 -430 0
-423 -431 0
-423 -432 0
-423 -433 0
-423 -434 0
-423 -435 0
-423 -436 0
-423 -437 0
-423 -438 0
-423 -439 0
-423 -440 0
-423 -441 0
-423 -442 0
-423 -443 0
-423 -444 0
-423 -445 0
-423 -446 0
-423 -447 0
-423 -448 0
-423 -449 0
-423 -450 0
-423 -451 0
-423 -452 0
-423 -453 0
-423 -454 0
-423 -455 0
-423 -456 0
-423 -457 0
-423 -458 0
-423 -459 0
-423 -460 0
-423 -461 0
-423 -462 0
-423 -463 0
-423 -464 0
-423 -465 0
-423 -466 0
-423 -467 0
-423 -468 0
-423 -469 0
-423 -470 0
-423 -471 0
-423 -472 0
-423 -473 0
-423 -474 0
-423 -475 0
-423 -476 0
-423 -477 0
-423 -478 0
-423 -479 0
-423 -480 0
-423 -481 0
-423 -482 0
-423 -483 0
-423 -484 0
-423 -485 0
-423 -486 0
-423 -487 0
-423 -488 0
-423 -489 0
-423 -490 0
-423 -491 0
-423 -492 0
-423 -493 0
-423 -494 0
-423 -495 0
-423 -496 0
-423 -497 0
-423 -498 0
-423 -499 0
-423 -500 0
-423 -501 0
-423 -502 0
-423 -503 0
-423 -504 0
-423 -505 0
-423 -506 0
-423 -507 0
-423 -508 0
-423 -509 0
-423 -510 0
-423 -511 0
-423 -512 0
-423 -513 0
-423 -514 0
-423 -515 0
-423 -516 0
-423 -517 0
-423 -518 0
-423 -519 0
-423 -520 0
-423 -521 0
-423 -522 0
-423 -523 0
-423 -524 0
-423 -525 0
-423 -526 0
-423 -527 0
-423 -528 0
-423 -529 0
-423 -530 0
-423 -531 0
-423 -532 0
-423 -533 0
-423 -534 0
-423 -535 0
-423 -536 0
-423 -537 0
-423 -538 0
-423 -539 0
-423 -540 0
-423 -541 0
-423 -542 0
-423 -543 0
-423 -544 0
-423 -545 0
-423 -546 0
-423 -547 0
-423 -548 0
-423 -549 0
-423 -550 0
-423 -551 0
-423 -552 0
-423 -553 0
-423 -554 0
-423 -555 0
-423 -556 0
-423 -557 0
-423 -558 0
-423 -559 0
-423 -560 0
-424 -425 0
-424 -426 0
-424 -427 0
-424 -428 0
-424 -429 0
-424 -430 0
-424 -431 0
-424 -432 0
-424 -433 0
-424 -434 0
-424 -435 0
-424 -436 0
-424 -437 0
-424 -438 0
-424 -439 0
-424 -440 0
-424 -441 0
-424 -442 0
-424 -443 0
-424 -444 0
-424 -445 0
-424 -446 0
-424 -447 0
-424 -448 0
-424 -449 0
-424 -450 0
-424 -451 0
-424 -452 0
-424 -453 0
-424 -454 0
-424 -455 0
-424 -456 0
-424 -457 0
-424 -458 0
-424 -459 0
-424 -460 0
-424 -461 0
-424 -462 0
-424 -463 0
-424 -464 0
-424 -465 0
-424 -466 0
-424 -467 0
-424 -468 0
-424 -469 0
-424 -470 0
-424 -471 0
-424 -472 0
-424 -473 0
-424 -474 0
-424 -475 0
-424 -476 0
-424 -477 0
-424 -478 0
-424 -479 0
-424 -480 0
-424 -481 0
-424 -482 0
-424 -483 0
-424 -484 0
-424 -485 0
-424 -486 0
-424 -487 0
-424 -488 0
-424 -489 0
-424 -490 0
-424 -491 0
-424 -492 0
-424 -493 0
-424 -494 0
-424 -495 0
-424 -496 0
-424 -497 0
-424 -498 0
-424 -499 0
-424 -500 0
-424 -501 0
-424 -502 0
-424 -503 0
-424 -504 0
-424 -505 0
-424 -506 0
-424 -507 0
-424 -508 0
-424 -509 0
-424 -510 0
-424 -511 0
-424 -512 0
-424 -513 0
-424 -514 0
-424 -515 0
-424 -516 0
-424 -517 0
-424 -518 0
-424 -519 0
-424 -520 0
-424 -521 0
-424 -522 0
-424 -523 0
-424 -524 0
-424 -525 0
-424 -526 0
-424 -527 0
-424 -528 0
-424 -529 0
-424 -530 0
-424 -531 0
-424 -532 0
-424 -533 0
-424 -534 0
-424 -535 0
-424 -536 0
-424 -537 0
-424 -538 0
-424 -539 0
-424 -540 0
-424 -541 0
-424 -542 0
-424 -543 0
-424 -544 0
-424 -545 0
-424 -546 0
-424 -547 0
-424 -548 0
-424 -549 0
-424 -550 0
-424 -551 0
-424 -552 0
-424 -553 0
-424 -554 0
-424 -555 0
-424 -556 0
-424 -557 0
-424 -558 0
-424 -559 0
-424 -560 0
-425 -426 0
-425 -427 0
-425 -428 0
-425 -429 0
-425 -430 0
-425 -431 0
-425 -432 0
-425 -433 0
-425 -434 0
-425 -435 0
-425 -436 0
-425 -437 0
-425 -438 0
-425 -439 0
-425 -440 0
-425 -441 0
-425 -442 0
-425 -443 0
-425 -444 0
-425 -445 0
-425 -446 0
-425 -447 0
-425 -448 0
-425 -449 0
-425 -450 0
-425 -451 0
-425 -452 0
-425 -453 0
-425 -454 0
-425 -455 0
-425 -456 0
-425 -457 0
-425 -458 0
-425 -459 0
-425 -460 0
-425 -461 0
-425 -462 0
-425 -463 0
-425 -464 0
-425 -465 0
-425 -466 0
-425 -467 0
-425 -468 0
-425 -469 0
-425 -470 0
-425 -471 0
-425 -472 0
-425 -473 0
-425 -474 0
-425 -475 0
-425 -476 0
-425 -477 0
-425 -478 0
-425 -479 0
-425 -480 0
-425 -481 0
-425 -482 0
-425 -483 0
-425 -484 0
-425 -485 0
-425 -486 0
-425 -487 0
-425 -488 0
-425 -489 0
-425 -490 0
-425 -491 0
-425 -492 0
-425 -493 0
-425 -494 0
-425 -495 0
-425 -496 0
-425 -497 0
-425 -498 0
-425 -499 0
-425 -500 0
-425 -501 0
-425 -502 0
-425 -503 0
-425 -504 0
-425 -505 0
-425 -506 0
-425 -507 0
-425 -508 0
-425 -509 0
-425 -510 0
-425 -511 0
-425 -512 0
-425 -513 0
-425 -514 0
-425 -515 0
-425 -516 0
-425 -517 0
-425 -518 0
-425 -519 0
-425 -520 0
-425 -521 0
-425 -522 0
-425 -523 0
-425 -524 0
-425 -525 0
-425 -526 0
-425 -527 0
-425 -528 0
-425 -529 0
-425 -530 0
-425 -531 0
-425 -532 0
-425 -533 0
-425 -534 0
-425 -535 0
-425 -536 0
-425 -537 0
-425 -538 0
-425 -539 0
-425 -540 0
-425 -541 0
-425 -542 0
-425 -543 0
-425 -544 0
-425 -545 0
-425 -546 0
-425 -547 0
-425 -548 0
-425 -549 0
-425 -550 0
-425 -551 0
-425 -552 0
-425 -553 0
-425 -554 0
-425 -555 0
-425 -556 0
-425 -557 0
-425 -558 0
-425 -559 0
-425 -560 0
-426 -427 0
-426 -428 0
-426 -429 0
-426 -430 0
-426 -431 0
-426 -432 0
-426 -433 0
-426 -434 0
-426 -435 0
-426 -436 0
-426 -437 0
-426 -438 0
-426 -439 0
-426 -440 0
-426 -441 0
-426 -442 0
-426 -443 0
-426 -444 0
-426 -445 0
-426 -446 0
-426 -447 0
-426 -448 0
-426 -449 0
-426 -450 0
-426 -451 0
-426 -452 0
-426 -453 0
-426 -454 0
-426 -455 0
-426 -456 0
-426 -457 0
-426 -458 0
-426 -459 0
-426 -460 0
-426 -461 0
-426 -462 0
-426 -463 0
-426 -464 0
-426 -465 0
-426 -466 0
-426 -467 0
-426 -468 0
-426 -469 0
-426 -470 0
-426 -471 0
-426 -472 0
-426 -473 0
-426 -474 0
-426 -475 0
-426 -476 0
-426 -477 0
-426 -478 0
-426 -479 0
-426 -480 0
-426 -481 0
-426 -482 0
-426 -483 0
-426 -484 0
-426 -485 0
-426 -486 0
-426 -487 0
-426 -488 0
-426 -489 0
-426 -490 0
-426 -491 0
-426 -492 0
-426 -493 0
-426 -494 0
-426 -495 0
-426 -496 0
-426 -497 0
-426 -498 0
-426 -499 0
-426 -500 0
-426 -501 0
-426 -502 0
-426 -503 0
-426 -504 0
-426 -505 0
-426 -506 0
-426 -507 0
-426 -508 0
-426 -509 0
-426 -510 0
-426 -511 0
-426 -512 0
-426 -513 0
-426 -514 0
-426 -515 0
-426 -516 0
-426 -517 0
-426 -518 0
-426 -519 0
-426 -520 0
-426 -521 0
-426 -522 0
-426 -523 0
-426 -524 0
-426 -525 0
-426 -526 0
-426 -527 0
-426 -528 0
-426 -529 0
-426 -530 0
-426 -531 0
-426 -532 0
-426 -533 0
-426 -534 0
-426 -535 0
-426 -536 0
-426 -537 0
-426 -538 0
-426 -539 0
-426 -540 0
-426 -541 0
-426 -542 0
-426 -543 0
-426 -544 0
-426 -545 0
-426 -546 0
-426 -547 0
-426 -548 0
-426 -549 0
-426 -550 0
-426 -551 0
-426 -552 0
-426 -553 0
-426 -554 0
-426 -555 0
-426 -556 0
-426 -557 0
-426 -558 0
-426 -559 0
-426 -560 0
-427 -428 0
-427 -429 0
-427 -430 0
-427 -431 0
-427 -432 0
-427 -433 0
-427 -434 0
-427 -435 0
-427 -436 0
-427 -437 0
-427 -438 0
-427 -439 0
-427 -440 0
-427 -441 0
-427 -442 0
-427 -443 0
-427 -444 0
-427 -445 0
-427 -446 0
-427 -447 0
-427 -448 0
-427 -449 0
-427 -450 0
-427 -451 0
-427 -452 0
-427 -453 0
-427 -454 0
-427 -455 0
-427 -456 0
-427 -457 0
-427 -458 0
-427 -459 0
-427 -460 0
-427 -461 0
-427 -462 0
-427 -463 0
-427 -464 0
-427 -465 0
-427 -466 0
-427 -467 0
-427 -468 0
-427 -469 0
-427 -470 0
-427 -471 0
-427 -472 0
-427 -473 0
-427 -474 0
-427 -475 0
-427 -476 0
-427 -477 0
-427 -478 0
-427 -479 0
-427 -480 0
-427 -481 0
-427 -482 0
-427 -483 0
-427 -484 0
-427 -485 0
-427 -486 0
-427 -487 0
-427 -488 0
-427 -489 0
-427 -490 0
-427 -491 0
-427 -492 0
-427 -493 0
-427 -494 0
-427 -495 0
-427 -496 0
-427 -497 0
-427 -498 0
-427 -499 0
-427 -500 0
-427 -501 0
-427 -502 0
-427 -503 0
-427 -504 0
-427 -505 0
-427 -506 0
-427 -507 0
-427 -508 0
-427 -509 0
-427 -510 0
-427 -511 0
-427 -512 0
-427 -513 0
-427 -514 0
-427 -515 0
-427 -516 0
-427 -517 0
-427 -518 0
-427 -519 0
-427 -520 0
-427 -521 0
-427 -522 0
-427 -523 0
-427 -524 0
-427 -525 0
-427 -526 0
-427 -527 0
-427 -528 0
-427 -529 0
-427 -530 0
-427 -531 0
-427 -532 0
-427 -533 0
-427 -534 0
-427 -535 0
-427 -536 0
-427 -537 0
-427 -538 0
-427 -539 0
-427 -540 0
-427 -541 0
-427 -542 0
-427 -543 0
-427 -544 0
-427 -545 0
-427 -546 0
-427 -547 0
-427 -548 0
-427 -549 0
-427 -550 0
-427 -551 0
-427 -552 0
-427 -553 0
-427 -554 0
-427 -555 0
-427 -556 0
-427 -557 0
-427 -558 0
-427 -559 0
-427 -560 0
-428 -429 0
-428 -430 0
-428 -431 0
-428 -432 0
-428 -433 0
-428 -434 0
-428 -435 0
-428 -436 0
-428 -437 0
-428 -438 0
-428 -439 0
-428 -440 0
-428 -441 0
-428 -442 0
-428 -443 0
-428 -444 0
-428 -445 0
-428 -446 0
-428 -447 0
-428 -448 0
-428 -449 0
-428 -450 0
-428 -451 0
-428 -452 0
-428 -453 0
-428 -454 0
-428 -455 0
-428 -456 0
-428 -457 0
-428 -458 0
-428 -459 0
-428 -460 0
-428 -461 0
-428 -462 0
-428 -463 0
-428 -464 0
-428 -465 0
-428 -466 0
-428 -467 0
-428 -468 0
-428 -469 0
-428 -470 0
-428 -471 0
-428 -472 0
-428 -473 0
-428 -474 0
-428 -475 0
-428 -476 0
-428 -477 0
-428 -478 0
-428 -479 0
-428 -480 0
-428 -481 0
-428 -482 0
-428 -483 0
-428 -484 0
-428 -485 0
-428 -486 0
-428 -487 0
-428 -488 0
-428 -489 0
-428 -490 0
-428 -491 0
-428 -492 0
-428 -493 0
-428 -494 0
-428 -495 0
-428 -496 0
-428 -497 0
-428 -498 0
-428 -499 0
-428 -500 0
-428 -501 0
-428 -502 0
-428 -503 0
-428 -504 0
-428 -505 0
-428 -506 0
-428 -507 0
-428 -508 0
-428 -509 0
-428 -510 0
-428 -511 0
-428 -512 0
-428 -513 0
-428 -514 0
-428 -515 0
-428 -516 0
-428 -517 0
-428 -518 0
-428 -519 0
-428 -520 0
-428 -521 0
-428 -522 0
-428 -523 0
-428 -524 0
-428 -525 0
-428 -526 0
-428 -527 0
-428 -528 0
-428 -529 0
-428 -530 0
-428 -531 0
-428 -532 0
-428 -533 0
-428 -534 0
-428 -535 0
-428 -536 0
-428 -537 0
-428 -538 0
-428 -539 0
-428 -540 0
-428 -541 0
-428 -542 0
-428 -543 0
-428 -544 0
-428 -545 0
-428 -546 0
-428 -547 0
-428 -548 0
-428 -549 0
-428 -550 0
-428 -551 0
-428 -552 0
-428 -553 0
-428 -554 0
-428 -555 0
-428 -556 0
-428 -557 0
-428 -558 0
-428 -559 0
-428 -560 0
-429 -430 0
-429 -431 0
-429 -432 0
-429 -433 0
-429 -434 0
-429 -435 0
-429 -436 0
-429 -437 0
-429 -438 0
-429 -439 0
-429 -440 0
-429 -441 0
-429 -442 0
-429 -443 0
-429 -444 0
-429 -445 0
-429 -446 0
-429 -447 0
-429 -448 0
-429 -449 0
-429 -450 0
-429 -451 0
-429 -452 0
-429 -453 0
-429 -454 0
-429 -455 0
-429 -456 0
-429 -457 0
-429 -458 0
-429 -459 0
-429 -460 0
-429 -461 0
-429 -462 0
-429 -463 0
-429 -464 0
-429 -465 0
-429 -466 0
-429 -467 0
-429 -468 0
-429 -469 0
-429 -470 0
-429 -471 0
-429 -472 0
-429 -473 0
-429 -474 0
-429 -475 0
-429 -476 0
-429 -477 0
-429 -478 0
-429 -479 0
-429 -480 0
-429 -481 0
-429 -482 0
-429 -483 0
-429 -484 0
-429 -485 0
-429 -486 0
-429 -487 0
-429 -488 0
-429 -489 0
-429 -490 0
-429 -491 0
-429 -492 0
-429 -493 0
-429 -494 0
-429 -495 0
-429 -496 0
-429 -497 0
-429 -498 0
-429 -499 0
-429 -500 0
-429 -501 0
-429 -502 0
-429 -503 0
-429 -504 0
-429 -505 0
-429 -506 0
-429 -507 0
-429 -508 0
-429 -509 0
-429 -510 0
-429 -511 0
-429 -512 0
-429 -513 0
-429 -514 0
-429 -515 0
-429 -516 0
-429 -517 0
-429 -518 0
-429 -519 0
-429 -520 0
-429 -521 0
-429 -522 0
-429 -523 0
-429 -524 0
-429 -525 0
-429 -526 0
-429 -527 0
-429 -528 0
-429 -529 0
-429 -530 0
-429 -531 0
-429 -532 0
-429 -533 0
-429 -534 0
-429 -535 0
-429 -536 0
-429 -537 0
-429 -538 0
-429 -539 0
-429 -540 0
-429 -541 0
-429 -542 0
-429 -543 0
-429 -544 0
-429 -545 0
-429 -546 0
-429 -547 0
-429 -548 0
-429 -549 0
-429 -550 0
-429 -551 0
-429 -552 0
-429 -553 0
-429 -554 0
-429 -555 0
-429 -556 0
-429 -557 0
-429 -558 0
-429 -559 0
-429 -560 0
-430 -431 0
-430 -432 0
-430 -433 0
-430 -434 0
-430 -435 0
-430 -436 0
-430 -437 0
-430 -438 0
-430 -439 0
-430 -440 0
-430 -441 0
-430 -442 0
-430 -443 0
-430 -444 0
-430 -445 0
-430 -446 0
-430 -447 0
-430 -448 0
-430 -449 0
-430 -450 0
-430 -451 0
-430 -452 0
-430 -453 0
-430 -454 0
-430 -455 0
-430 -456 0
-430 -457 0
-430 -458 0
-430 -459 0
-430 -460 0
-430 -461 0
-430 -462 0
-430 -463 0
-430 -464 0
-430 -465 0
-430 -466 0
-430 -467 0
-430 -468 0
-430 -469 0
-430 -470 0
-430 -471 0
-430 -472 0
-430 -473 0
-430 -474 0
-430 -475 0
-430 -476 0
-430 -477 0
-430 -478 0
-430 -479 0
-430 -480 0
-430 -481 0
-430 -482 0
-430 -483 0
-430 -484 0
-430 -485 0
-430 -486 0
-430 -487 0
-430 -488 0
-430 -489 0
-430 -490 0
-430 -491 0
-430 -492 0
-430 -493 0
-430 -494 0
-430 -495 0
-430 -496 0
-430 -497 0
-430 -498 0
-430 -499 0
-430 -500 0
-430 -501 0
-430 -502 0
-430 -503 0
-430 -504 0
-430 -505 0
-430 -506 0
-430 -507 0
-430 -508 0
-430 -509 0
-430 -510 0
-430 -511 0
-430 -512 0
-430 -513 0
-430 -514 0
-430 -515 0
-430 -516 0
-430 -517 0
-430 -518 0
-430 -519 0
-430 -520 0
-430 -521 0
-430 -522 0
-430 -523 0
-430 -524 0
-430 -525 0
-430 -526 0
-430 -527 0
-430 -528 0
-430 -529 0
-430 -530 0
-430 -531 0
-430 -532 0
-430 -533 0
-430 -534 0
-430 -535 0
-430 -536 0
-430 -537 0
-430 -538 0
-430 -539 0
-430 -540 0
-430 -541 0
-430 -542 0
-430 -543 0
-430 -544 0
-430 -545 0
-430 -546 0
-430 -547 0
-430 -548 0
-430 -549 0
-430 -550 0
-430 -551 0
-430 -552 0
-430 -553 0
-430 -554 0
-430 -555 0
-430 -556 0
-430 -557 0
-430 -558 0
-430 -559 0
-430 -560 0
-431 -432 0
-431 -433 0
-431 -434 0
-431 -435 0
-431 -436 0
-431 -437 0
-431 -438 0
-431 -439 0
-431 -440 0
-431 -441 0
-431 -442 0
-431 -443 0
-431 -444 0
-431 -445 0
-431 -446 0
-431 -447 0
-431 -448 0
-431 -449 0
-431 -450 0
-431 -451 0
-431 -452 0
-431 -453 0
-431 -454 0
-431 -455 0
-431 -456 0
-431 -457 0
-431 -458 0
-431 -459 0
-431 -460 0
-431 -461 0
-431 -462 0
-431 -463 0
-431 -464 0
-431 -465 0
-431 -466 0
-431 -467 0
-431 -468 0
-431 -469 0
-431 -470 0
-431 -471 0
-431 -472 0
-431 -473 0
-431 -474 0
-431 -475 0
-431 -476 0
-431 -477 0
-431 -478 0
-431 -479 0
-431 -480 0
-431 -481 0
-431 -482 0
-431 -483 0
-431 -484 0
-431 -485 0
-431 -486 0
-431 -487 0
-431 -488 0
-431 -489 0
-431 -490 0
-431 -491 0
-431 -492 0
-431 -493 0
-431 -494 0
-431 -495 0
-431 -496 0
-431 -497 0
-431 -498 0
-431 -499 0
-431 -500 0
-431 -501 0
-431 -502 0
-431 -503 0
-431 -504 0
-431 -505 0
-431 -506 0
-431 -507 0
-431 -508 0
-431 -509 0
-431 -510 0
-431 -511 0
-431 -512 0
-431 -513 0
-431 -514 0
-431 -515 0
-431 -516 0
-431 -517 0
-431 -518 0
-431 -519 0
-431 -520 0
-431 -521 0
-431 -522 0
-431 -523 0
-431 -524 0
-431 -525 0
-431 -526 0
-431 -527 0
-431 -528 0
-431 -529 0
-431 -530 0
-431 -531 0
-431 -532 0
-431 -533 0
-431 -534 0
-431 -535 0
-431 -536 0
-431 -537 0
-431 -538 0
-431 -539 0
-431 -540 0
-431 -541 0
-431 -542 0
-431 -543 0
-431 -544 0
-431 -545 0
-431 -546 0
-431 -547 0
-431 -548 0
-431 -549 0
-431 -550 0
-431 -551 0
-431 -552 0
-431 -553 0
-431 -554 0
-431 -555 0
-431 -556 0
-431 -557 0
-431 -558 0
-431 -559 0
-431 -560 0
-432 -433 0
-432 -434 0
-432 -435 0
-432 -436 0
-432 -437 0
-432 -438 0
-432 -439 0
-432 -440 0
-432 -441 0
-432 -442 0
-432 -443 0
-432 -444 0
-432 -445 0
-432 -446 0
-432 -447 0
-432 -448 0
-432 -449 0
-432 -450 0
-432 -451 0
-432 -452 0
-432 -453 0
-432 -454 0
-432 -455 0
-432 -456 0
-432 -457 0
-432 -458 0
-432 -459 0
-432 -460 0
-432 -461 0
-432 -462 0
-432 -463 0
-432 -464 0
-432 -465 0
-432 -466 0
-432 -467 0
-432 -468 0
-432 -469 0
-432 -470 0
-432 -471 0
-432 -472 0
-432 -473 0
-432 -474 0
-432 -475 0
-432 -476 0
-432 -477 0
-432 -478 0
-432 -479 0
-432 -480 0
-432 -481 0
-432 -482 0
-432 -483 0
-432 -484 0
-432 -485 0
-432 -486 0
-432 -487 0
-432 -488 0
-432 -489 0
-432 -490 0
-432 -491 0
-432 -492 0
-432 -493 0
-432 -494 0
-432 -495 0
-432 -496 0
-432 -497 0
-432 -498 0
-432 -499 0
-432 -500 0
-432 -501 0
-432 -502 0
-432 -503 0
-432 -504 0
-432 -505 0
-432 -506 0
-432 -507 0
-432 -508 0
-432 -509 0
-432 -510 0
-432 -511 0
-432 -512 0
-432 -513 0
-432 -514 0
-432 -515 0
-432 -516 0
-432 -517 0
-432 -518 0
-432 -519 0
-432 -520 0
-432 -521 0
-432 -522 0
-432 -523 0
-432 -524 0
-432 -525 0
-432 -526 0
-432 -527 0
-432 -528 0
-432 -529 0
-432 -530 0
-432 -531 0
-432 -532 0
-432 -533 0
-432 -534 0
-432 -535 0
-432 -536 0
-432 -537 0
-432 -538 0
-432 -539 0
-432 -540 0
-432 -541 0
-432 -542 0
-432 -543 0
-432 -544 0
-432 -545 0
-432 -546 0
-432 -547 0
-432 -548 0
-432 -549 0
-432 -550 0
-432 -551 0
-432 -552 0
-432 -553 0
-432 -554 0
-432 -555 0
-432 -556 0
-432 -557 0
-432 -558 0
-432 -559 0
-432 -560 0
-433 -434 0
-433 -435 0
-433 -436 0
-433 -437 0
-433 -438 0
-433 -439 0
-433 -440 0
-433 -441 0
-433 -442 0
-433 -443 0
-433 -444 0
-433 -445 0
-433 -446 0
-433 -447 0
-433 -448 0
-433 -449 0
-433 -450 0
-433 -451 0
-433 -452 0
-433 -453 0
-433 -454 0
-433 -455 0
-433 -456 0
-433 -457 0
-433 -458 0
-433 -459 0
-433 -460 0
-433 -461 0
-433 -462 0
-433 -463 0
-433 -464 0
-433 -465 0
-433 -466 0
-433 -467 0
-433 -468 0
-433 -469 0
-433 -470 0
-433 -471 0
-433 -472 0
-433 -473 0
-433 -474 0
-433 -475 0
-433 -476 0
-433 -477 0
-433 -478 0
-433 -479 0
-433 -480 0
-433 -481 0
-433 -482 0
-433 -483 0
-433 -484 0
-433 -485 0
-433 -486 0
-433 -487 0
-433 -488 0
-433 -489 0
-433 -490 0
-433 -491 0
-433 -492 0
-433 -493 0
-433 -494 0
-433 -495 0
-433 -496 0
-433 -497 0
-433 -498 0
-433 -499 0
-433 -500 0
-433 -501 0
-433 -502 0
-433 -503 0
-433 -504 0
-433 -505 0
-433 -506 0
-433 -507 0
-433 -508 0
-433 -509 0
-433 -510 0
-433 -511 0
-433 -512 0
-433 -513 0
-433 -514 0
-433 -515 0
-433 -516 0
-433 -517 0
-433 -518 0
-433 -519 0
-433 -520 0
-433 -521 0
-433 -522 0
-433 -523 0
-433 -524 0
-433 -525 0
-433 -526 0
-433 -527 0
-433 -528 0
-433 -529 0
-433 -530 0
-433 -531 0
-433 -532 0
-433 -533 0
-433 -534 0
-433 -535 0
-433 -536 0
-433 -537 0
-433 -538 0
-433 -539 0
-433 -540 0
-433 -541 0
-433 -542 0
-433 -543 0
-433 -544 0
-433 -545 0
-433 -546 0
-433 -547 0
-433 -548 0
-433 -549 0
-433 -550 0
-433 -551 0
-433 -552 0
-433 -553 0
-433 -554 0
-433 -555 0
-433 -556 0
-433 -557 0
-433 -558 0
-433 -559 0
-433 -560 0
-434 -435 0
-434 -436 0
-434 -437 0
-434 -438 0
-434 -439 0
-434 -440 0
-434 -441 0
-434 -442 0
-434 -443 0
-434 -444 0
-434 -445 0
-434 -446 0
-434 -447 0
-434 -448 0
-434 -449 0
-434 -450 0
-434 -451 0
-434 -452 0
-434 -453 0
-434 -454 0
-434 -455 0
-434 -456 0
-434 -457 0
-434 -458 0
-434 -459 0
-434 -460 0
-434 -461 0
-434 -462 0
-434 -463 0
-434 -464 0
-434 -465 0
-434 -466 0
-434 -467 0
-434 -468 0
-434 -469 0
-434 -470 0
-434 -471 0
-434 -472 0
-434 -473 0
-434 -474 0
-434 -475 0
-434 -476 0
-434 -477 0
-434 -478 0
-434 -479 0
-434 -480 0
-434 -481 0
-434 -482 0
-434 -483 0
-434 -484 0
-434 -485 0
-434 -486 0
-434 -487 0
-434 -488 0
-434 -489 0
-434 -490 0
-434 -491 0
-434 -492 0
-434 -493 0
-434 -494 0
-434 -495 0
-434 -496 0
-434 -497 0
-434 -498 0
-434 -499 0
-434 -500 0
-434 -501 0
-434 -502 0
-434 -503 0
-434 -504 0
-434 -505 0
-434 -506 0
-434 -507 0
-434 -508 0
-434 -509 0
-434 -510 0
-434 -511 0
-434 -512 0
-434 -513 0
-434 -514 0
-434 -515 0
-434 -516 0
-434 -517 0
-434 -518 0
-434 -519 0
-434 -520 0
-434 -521 0
-434 -522 0
-434 -523 0
-434 -524 0
-434 -525 0
-434 -526 0
-434 -527 0
-434 -528 0
-434 -529 0
-434 -530 0
-434 -531 0
-434 -532 0
-434 -533 0
-434 -534 0
-434 -535 0
-434 -536 0
-434 -537 0
-434 -538 0
-434 -539 0
-434 -540 0
-434 -541 0
-434 -542 0
-434 -543 0
-434 -544 0
-434 -545 0
-434 -546 0
-434 -547 0
-434 -548 0
-434 -549 0
-434 -550 0
-434 -551 0
-434 -552 0
-434 -553 0
-434 -554 0
-434 -555 0
-434 -556 0
-434 -557 0
-434 -558 0
-434 -559 0
-434 -560 0
-435 -436 0
-435 -437 0
-435 -438 0
-435 -439 0
-435 -440 0
-435 -441 0
-435 -442 0
-435 -443 0
-435 -444 0
-435 -445 0
-435 -446 0
-435 -447 0
-435 -448 0
-435 -449 0
-435 -450 0
-435 -451 0
-435 -452 0
-435 -453 0
-435 -454 0
-435 -455 0
-435 -456 0
-435 -457 0
-435 -458 0
-435 -459 0
-435 -460 0
-435 -461 0
-435 -462 0
-435 -463 0
-435 -464 0
-435 -465 0
-435 -466 0
-435 -467 0
-435 -468 0
-435 -469 0
-435 -470 0
-435 -471 0
-435 -472 0
-435 -473 0
-435 -474 0
-435 -475 0
-435 -476 0
-435 -477 0
-435 -478 0
-435 -479 0
-435 -480 0
-435 -481 0
-435 -482 0
-435 -483 0
-435 -484 0
-435 -485 0
-435 -486 0
-435 -487 0
-435 -488 0
-435 -489 0
-435 -490 0
-435 -491 0
-435 -492 0
-435 -493 0
-435 -494 0
-435 -495 0
-435 -496 0
-435 -497 0
-435 -498 0
-435 -499 0
-435 -500 0
-435 -501 0
-435 -502 0
-435 -503 0
-435 -504 0
-435 -505 0
-435 -506 0
-435 -507 0
-435 -508 0
-435 -509 0
-435 -510 0
-435 -511 0
-435 -512 0
-435 -513 0
-435 -514 0
-435 -515 0
-435 -516 0
-435 -517 0
-435 -518 0
-435 -519 0
-435 -520 0
-435 -521 0
-435 -522 0
-435 -523 0
-435 -524 0
-435 -525 0
-435 -526 0
-435 -527 0
-435 -528 0
-435 -529 0
-435 -530 0
-435 -531 0
-435 -532 0
-435 -533 0
-435 -534 0
-435 -535 0
-435 -536 0
-435 -537 0
-435 -538 0
-435 -539 0
-435 -540 0
-435 -541 0
-435 -542 0
-435 -543 0
-435 -544 0
-435 -545 0
-435 -546 0
-435 -547 0
-435 -548 0
-435 -549 0
-435 -550 0
-435 -551 0
-435 -552 0
-435 -553 0
-435 -554 0
-435 -555 0
-435 -556 0
-435 -557 0
-435 -558 0
-435 -559 0
-435 -560 0
-436 -437 0
-436 -438 0
-436 -439 0
-436 -440 0
-436 -441 0
-436 -442 0
-436 -443 0
-436 -444 0
-436 -445 0
-436 -446 0
-436 -447 0
-436 -448 0
-436 -449 0
-436 -450 0
-436 -451 0
-436 -452 0
-436 -453 0
-436 -454 0
-436 -455 0
-436 -456 0
-436 -457 0
-436 -458 0
-436 -459 0
-436 -460 0
-436 -461 0
-436 -462 0
-436 -463 0
-436 -464 0
-436 -465 0
-436 -466 0
-436 -467 0
-436 -468 0
-436 -469 0
-436 -470 0
-436 -471 0
-436 -472 0
-436 -473 0
-436 -474 0
-436 -475 0
-436 -476 0
-436 -477 0
-436 -478 0
-436 -479 0
-436 -480 0
-436 -481 0
-436 -482 0
-436 -483 0
-436 -484 0
-436 -485 0
-436 -486 0
-436 -487 0
-436 -488 0
-436 -489 0
-436 -490 0
-436 -491 0
-436 -492 0
-436 -493 0
-436 -494 0
-436 -495 0
-436 -496 0
-436 -497 0
-436 -498 0
-436 -499 0
-436 -500 0
-436 -501 0
-436 -502 0
-436 -503 0
-436 -504 0
-436 -505 0
-436 -506 0
-436 -507 0
-436 -508 0
-436 -509 0
-436 -510 0
-436 -511 0
-436 -512 0
-436 -513 0
-436 -514 0
-436 -515 0
-436 -516 0
-436 -517 0
-436 -518 0
-436 -519 0
-436 -520 0
-436 -521 0
-436 -522 0
-436 -523 0
-436 -524 0
-436 -525 0
-436 -526 0
-436 -527 0
-436 -528 0
-436 -529 0
-436 -530 0
-436 -531 0
-436 -532 0
-436 -533 0
-436 -534 0
-436 -535 0
-436 -536 0
-436 -537 0
-436 -538 0
-436 -539 0
-436 -540 0
-436 -541 0
-436 -542 0
-436 -543 0
-436 -544 0
-436 -545 0
-436 -546 0
-436 -547 0
-436 -548 0
-436 -549 0
-436 -550 0
-436 -551 0
-436 -552 0
-436 -553 0
-436 -554 0
-436 -555 0
-436 -556 0
-436 -557 0
-436 -558 0
-436 -559 0
-436 -560 0
-437 -438 0
-437 -439 0
-437 -440 0
-437 -441 0
-437 -442 0
-437 -443 0
-437 -444 0
-437 -445 0
-437 -446 0
-437 -447 0
-437 -448 0
-437 -449 0
-437 -450 0
-437 -451 0
-437 -452 0
-437 -453 0
-437 -454 0
-437 -455 0
-437 -456 0
-437 -457 0
-437 -458 0
-437 -459 0
-437 -460 0
-437 -461 0
-437 -462 0
-437 -463 0
-437 -464 0
-437 -465 0
-437 -466 0
-437 -467 0
-437 -468 0
-437 -469 0
-437 -470 0
-437 -471 0
-437 -472 0
-437 -473 0
-437 -474 0
-437 -475 0
-437 -476 0
-437 -477 0
-437 -478 0
-437 -479 0
-437 -480 0
-437 -481 0
-437 -482 0
-437 -483 0
-437 -484 0
-437 -485 0
-437 -486 0
-437 -487 0
-437 -488 0
-437 -489 0
-437 -490 0
-437 -491 0
-437 -492 0
-437 -493 0
-437 -494 0
-437 -495 0
-437 -496 0
-437 -497 0
-437 -498 0
-437 -499 0
-437 -500 0
-437 -501 0
-437 -502 0
-437 -503 0
-437 -504 0
-437 -505 0
-437 -506 0
-437 -507 0
-437 -508 0
-437 -509 0
-437 -510 0
-437 -511 0
-437 -512 0
-437 -513 0
-437 -514 0
-437 -515 0
-437 -516 0
-437 -517 0
-437 -518 0
-437 -519 0
-437 -520 0
-437 -521 0
-437 -522 0
-437 -523 0
-437 -524 0
-437 -525 0
-437 -526 0
-437 -527 0
-437 -528 0
-437 -529 0
-437 -530 0
-437 -531 0
-437 -532 0
-437 -533 0
-437 -534 0
-437 -535 0
-437 -536 0
-437 -537 0
-437 -538 0
-437 -539 0
-437 -540 0
-437 -541 0
-437 -542 0
-437 -543 0
-437 -544 0
-437 -545 0
-437 -546 0
-437 -547 0
-437 -548 0
-437 -549 0
-437 -550 0
-437 -551 0
-437 -552 0
-437 -553 0
-437 -554 0
-437 -555 0
-437 -556 0
-437 -557 0
-437 -558 0
-437 -559 0
-437 -560 0
-438 -439 0
-438 -440 0
-438 -441 0
-438 -442 0
-438 -443 0
-438 -444 0
-438 -445 0
-438 -446 0
-438 -447 0
-438 -448 0
-438 -449 0
-438 -450 0
-438 -451 0
-438 -452 0
-438 -453 0
-438 -454 0
-438 -455 0
-438 -456 0
-438 -457 0
-438 -458 0
-438 -459 0
-438 -460 0
-438 -461 0
-438 -462 0
-438 -463 0
-438 -464 0
-438 -465 0
-438 -466 0
-438 -467 0
-438 -468 0
-438 -469 0
-438 -470 0
-438 -471 0
-438 -472 0
-438 -473 0
-438 -474 0
-438 -475 0
-438 -476 0
-438 -477 0
-438 -478 0
-438 -479 0
-438 -480 0
-438 -481 0
-438 -482 0
-438 -483 0
-438 -484 0
-438 -485 0
-438 -486 0
-438 -487 0
-438 -488 0
-438 -489 0
-438 -490 0
-438 -491 0
-438 -492 0
-438 -493 0
-438 -494 0
-438 -495 0
-438 -496 0
-438 -497 0
-438 -498 0
-438 -499 0
-438 -500 0
-438 -501 0
-438 -502 0
-438 -503 0
-438 -504 0
-438 -505 0
-438 -506 0
-438 -507 0
-438 -508 0
-438 -509 0
-438 -510 0
-438 -511 0
-438 -512 0
-438 -513 0
-438 -514 0
-438 -515 0
-438 -516 0
-438 -517 0
-438 -518 0
-438 -519 0
-438 -520 0
-438 -521 0
-438 -522 0
-438 -523 0
-438 -524 0
-438 -525 0
-438 -526 0
-438 -527 0
-438 -528 0
-438 -529 0
-438 -530 0
-438 -531 0
-438 -532 0
-438 -533 0
-438 -534 0
-438 -535 0
-438 -536 0
-438 -537 0
-438 -538 0
-438 -539 0
-438 -540 0
-438 -541 0
-438 -542 0
-438 -543 0
-438 -544 0
-438 -545 0
-438 -546 0
-438 -547 0
-438 -548 0
-438 -549 0
-438 -550 0
-438 -551 0
-438 -552 0
-438 -553 0
-438 -554 0
-438 -555 0
-438 -556 0
-438 -557 0
-438 -558 0
-438 -559 0
-438 -560 0
-439 -440 0
-439 -441 0
-439 -442 0
-439 -443 0
-439 -444 0
-439 -445 0
-439 -446 0
-439 -447 0
-439 -448 0
-439 -449 0
-439 -450 0
-439 -451 0
-439 -452 0
-439 -453 0
-439 -454 0
-439 -455 0
-439 -456 0
-439 -457 0
-439 -458 0
-439 -459 0
-439 -460 0
-439 -461 0
-439 -462 0
-439 -463 0
-439 -464 0
-439 -465 0
-439 -466 0
-439 -467 0
-439 -468 0
-439 -469 0
-439 -470 0
-439 -471 0
-439 -472 0
-439 -473 0
-439 -474 0
-439 -475 0
-439 -476 0
-439 -477 0
-439 -478 0
-439 -479 0
-439 -480 0
-439 -481 0
-439 -482 0
-439 -483 0
-439 -484 0
-439 -485 0
-439 -486 0
-439 -487 0
-439 -488 0
-439 -489 0
-439 -490 0
-439 -491 0
-439 -492 0
-439 -493 0
-439 -494 0
-439 -495 0
-439 -496 0
-439 -497 0
-439 -498 0
-439 -499 0
-439 -500 0
-439 -501 0
-439 -502 0
-439 -503 0
-439 -504 0
-439 -505 0
-439 -506 0
-439 -507 0
-439 -508 0
-439 -509 0
-439 -510 0
-439 -511 0
-439 -512 0
-439 -513 0
-439 -514 0
-439 -515 0
-439 -516 0
-439 -517 0
-439 -518 0
-439 -519 0
-439 -520 0
-439 -521 0
-439 -522 0
-439 -523 0
-439 -524 0
-439 -525 0
-439 -526 0
-439 -527 0
-439 -528 0
-439 -529 0
-439 -530 0
-439 -531 0
-439 -532 0
-439 -533 0
-439 -534 0
-439 -535 0
-439 -536 0
-439 -537 0
-439 -538 0
-439 -539 0
-439 -540 0
-439 -541 0
-439 -542 0
-439 -543 0
-439 -544 0
-439 -545 0
-439 -546 0
-439 -547 0
-439 -548 0
-439 -549 0
-439 -550 0
-439 -551 0
-439 -552 0
-439 -553 0
-439 -554 0
-439 -555 0
-439 -556 0
-439 -557 0
-439 -558 0
-439 -559 0
-439 -560 0
-440 -441 0
-440 -442 0
-440 -443 0
-440 -444 0
-440 -445 0
-440 -446 0
-440 -447 0
-440 -448 0
-440 -449 0
-440 -450 0
-440 -451 0
-440 -452 0
-440 -453 0
-440 -454 0
-440 -455 0
-440 -456 0
-440 -457 0
-440 -458 0
-440 -459 0
-440 -460 0
-440 -461 0
-440 -462 0
-440 -463 0
-440 -464 0
-440 -465 0
-440 -466 0
-440 -467 0
-440 -468 0
-440 -469 0
-440 -470 0
-440 -471 0
-440 -472 0
-440 -473 0
-440 -474 0
-440 -475 0
-440 -476 0
-440 -477 0
-440 -478 0
-440 -479 0
-440 -480 0
-440 -481 0
-440 -482 0
-440 -483 0
-440 -484 0
-440 -485 0
-440 -486 0
-440 -487 0
-440 -488 0
-440 -489 0
-440 -490 0
-440 -491 0
-440 -492 0
-440 -493 0
-440 -494 0
-440 -495 0
-440 -496 0
-440 -497 0
-440 -498 0
-440 -499 0
-440 -500 0
-440 -501 0
-440 -502 0
-440 -503 0
-440 -504 0
-440 -505 0
-440 -506 0
-440 -507 0
-440 -508 0
-440 -509 0
-440 -510 0
-440 -511 0
-440 -512 0
-440 -513 0
-440 -514 0
-440 -515 0
-440 -516 0
-440 -517 0
-440 -518 0
-440 -519 0
-440 -520 0
-440 -521 0
-440 -522 0
-440 -523 0
-440 -524 0
-440 -525 0
-440 -526 0
-440 -527 0
-440 -528 0
-440 -529 0
-440 -530 0
-440 -531 0
-440 -532 0
-440 -533 0
-440 -534 0
-440 -535 0
-440 -536 0
-440 -537 0
-440 -538 0
-440 -539 0
-440 -540 0
-440 -541 0
-440 -542 0
-440 -543 0
-440 -544 0
-440 -545 0
-440 -546 0
-440 -547 0
-440 -548 0
-440 -549 0
-440 -550 0
-440 -551 0
-440 -552 0
-440 -553 0
-440 -554 0
-440 -555 0
-440 -556 0
-440 -557 0
-440 -558 0
-440 -559 0
-440 -560 0
-441 -442 0
-441 -443 0
-441 -444 0
-441 -445 0
-441 -446 0
-441 -447 0
-441 -448 0
-441 -449 0
-441 -450 0
-441 -451 0
-441 -452 0
-441 -453 0
-441 -454 0
-441 -455 0
-441 -456 0
-441 -457 0
-441 -458 0
-441 -459 0
-441 -460 0
-441 -461 0
-441 -462 0
-441 -463 0
-441 -464 0
-441 -465 0
-441 -466 0
-441 -467 0
-441 -468 0
-441 -469 0
-441 -470 0
-441 -471 0
-441 -472 0
-441 -473 0
-441 -474 0
-441 -475 0
-441 -476 0
-441 -477 0
-441 -478 0
-441 -479 0
-441 -480 0
-441 -481 0
-441 -482 0
-441 -483 0
-441 -484 0
-441 -485 0
-441 -486 0
-441 -487 0
-441 -488 0
-441 -489 0
-441 -490 0
-441 -491 0
-441 -492 0
-441 -493 0
-441 -494 0
-441 -495 0
-441 -496 0
-441 -497 0
-441 -498 0
-441 -499 0
-441 -500 0
-441 -501 0
-441 -502 0
-441 -503 0
-441 -504 0
-441 -505 0
-441 -506 0
-441 -507 0
-441 -508 0
-441 -509 0
-441 -510 0
-441 -511 0
-441 -512 0
-441 -513 0
-441 -514 0
-441 -515 0
-441 -516 0
-441 -517 0
-441 -518 0
-441 -519 0
-441 -520 0
-441 -521 0
-441 -522 0
-441 -523 0
-441 -524 0
-441 -525 0
-441 -526 0
-441 -527 0
-441 -528 0
-441 -529 0
-441 -530 0
-441 -531 0
-441 -532 0
-441 -533 0
-441 -534 0
-441 -535 0
-441 -536 0
-441 -537 0
-441 -538 0
-441 -539 0
-441 -540 0
-441 -541 0
-441 -542 0
-441 -543 0
-441 -544 0
-441 -545 0
-441 -546 0
-441 -547 0
-441 -548 0
-441 -549 0
-441 -550 0
-441 -551 0
-441 -552 0
-441 -553 0
-441 -554 0
-441 -555 0
-441 -556 0
-441 -557 0
-441 -558 0
-441 -559 0
-441 -560 0
-442 -443 0
-442 -444 0
-442 -445 0
-442 -446 0
-442 -447 0
-442 -448 0
-442 -449 0
-442 -450 0
-442 -451 0
-442 -452 0
-442 -453 0
-442 -454 0
-442 -455 0
-442 -456 0
-442 -457 0
-442 -458 0
-442 -459 0
-442 -460 0
-442 -461 0
-442 -462 0
-442 -463 0
-442 -464 0
-442 -465 0
-442 -466 0
-442 -467 0
-442 -468 0
-442 -469 0
-442 -470 0
-442 -471 0
-442 -472 0
-442 -473 0
-442 -474 0
-442 -475 0
-442 -476 0
-442 -477 0
-442 -478 0
-442 -479 0
-442 -480 0
-442 -481 0
-442 -482 0
-442 -483 0
-442 -484 0
-442 -485 0
-442 -486 0
-442 -487 0
-442 -488 0
-442 -489 0
-442 -490 0
-442 -491 0
-442 -492 0
-442 -493 0
-442 -494 0
-442 -495 0
-442 -496 0
-442 -497 0
-442 -498 0
-442 -499 0
-442 -500 0
-442 -501 0
-442 -502 0
-442 -503 0
-442 -504 0
-442 -505 0
-442 -506 0
-442 -507 0
-442 -508 0
-442 -509 0
-442 -510 0
-442 -511 0
-442 -512 0
-442 -513 0
-442 -514 0
-442 -515 0
-442 -516 0
-442 -517 0
-442 -518 0
-442 -519 0
-442 -520 0
-442 -521 0
-442 -522 0
-442 -523 0
-442 -524 0
-442 -525 0
-442 -526 0
-442 -527 0
-442 -528 0
-442 -529 0
-442 -530 0
-442 -531 0
-442 -532 0
-442 -533 0
-442 -534 0
-442 -535 0
-442 -536 0
-442 -537 0
-442 -538 0
-442 -539 0
-442 -540 0
-442 -541 0
-442 -542 0
-442 -543 0
-442 -544 0
-442 -545 0
-442 -546 0
-442 -547 0
-442 -548 0
-442 -549 0
-442 -550 0
-442 -551 0
-442 -552 0
-442 -553 0
-442 -554 0
-442 -555 0
-442 -556 0
-442 -557 0
-442 -558 0
-442 -559 0
-442 -560 0
-443 -444 0
-443 -445 0
-443 -446 0
-443 -447 0
-443 -448 0
-443 -449 0
-443 -450 0
-443 -451 0
-443 -452 0
-443 -453 0
-443 -454 0
-443 -455 0
-443 -456 0
-443 -457 0
-443 -458 0
-443 -459 0
-443 -460 0
-443 -461 0
-443 -462 0
-443 -463 0
-443 -464 0
-443 -465 0
-443 -466 0
-443 -467 0
-443 -468 0
-443 -469 0
-443 -470 0
-443 -471 0
-443 -472 0
-443 -473 0
-443 -474 0
-443 -475 0
-443 -476 0
-443 -477 0
-443 -478 0
-443 -479 0
-443 -480 0
-443 -481 0
-443 -482 0
-443 -483 0
-443 -484 0
-443 -485 0
-443 -486 0
-443 -487 0
-443 -488 0
-443 -489 0
-443 -490 0
-443 -491 0
-443 -492 0
-443 -493 0
-443 -494 0
-443 -495 0
-443 -496 0
-443 -497 0
-443 -498 0
-443 -499 0
-443 -500 0
-443 -501 0
-443 -502 0
-443 -503 0
-443 -504 0
-443 -505 0
-443 -506 0
-443 -507 0
-443 -508 0
-443 -509 0
-443 -510 0
-443 -511 0
-443 -512 0
-443 -513 0
-443 -514 0
-443 -515 0
-443 -516 0
-443 -517 0
-443 -518 0
-443 -519 0
-443 -520 0
-443 -521 0
-443 -522 0
-443 -523 0
-443 -524 0
-443 -525 0
-443 -526 0
-443 -527 0
-443 -528 0
-443 -529 0
-443 -530 0
-443 -531 0
-443 -532 0
-443 -533 0
-443 -534 0
-443 -535 0
-443 -536 0
-443 -537 0
-443 -538 0
-443 -539 0
-443 -540 0
-443 -541 0
-443 -542 0
-443 -543 0
-443 -544 0
-443 -545 0
-443 -546 0
-443 -547 0
-443 -548 0
-443 -549 0
-443 -550 0
-443 -551 0
-443 -552 0
-443 -553 0
-443 -554 0
-443 -555 0
-443 -556 0
-443 -557 0
-443 -558 0
-443 -559 0
-443 -560 0
-444 -445 0
-444 -446 0
-444 -447 0
-444 -448 0
-444 -449 0
-444 -450 0
-444 -451 0
-444 -452 0
-444 -453 0
-444 -454 0
-444 -455 0
-444 -456 0
-444 -457 0
-444 -458 0
-444 -459 0
-444 -460 0
-444 -461 0
-444 -462 0
-444 -463 0
-444 -464 0
-444 -465 0
-444 -466 0
-444 -467 0
-444 -468 0
-444 -469 0
-444 -470 0
-444 -471 0
-444 -472 0
-444 -473 0
-444 -474 0
-444 -475 0
-444 -476 0
-444 -477 0
-444 -478 0
-444 -479 0
-444 -480 0
-444 -481 0
-444 -482 0
-444 -483 0
-444 -484 0
-444 -485 0
-444 -486 0
-444 -487 0
-444 -488 0
-444 -489 0
-444 -490 0
-444 -491 0
-444 -492 0
-444 -493 0
-444 -494 0
-444 -495 0
-444 -496 0
-444 -497 0
-444 -498 0
-444 -499 0
-444 -500 0
-444 -501 0
-444 -502 0
-444 -503 0
-444 -504 0
-444 -505 0
-444 -506 0
-444 -507 0
-444 -508 0
-444 -509 0
-444 -510 0
-444 -511 0
-444 -512 0
-444 -513 0
-444 -514 0
-444 -515 0
-444 -516 0
-444 -517 0
-444 -518 0
-444 -519 0
-444 -520 0
-444 -521 0
-444 -522 0
-444 -523 0
-444 -524 0
-444 -525 0
-444 -526 0
-444 -527 0
-444 -528 0
-444 -529 0
-444 -530 0
-444 -531 0
-444 -532 0
-444 -533 0
-444 -534 0
-444 -535 0
-444 -536 0
-444 -537 0
-444 -538 0
-444 -539 0
-444 -540 0
-444 -541 0
-444 -542 0
-444 -543 0
-444 -544 0
-444 -545 0
-444 -546 0
-444 -547 0
-444 -548 0
-444 -549 0
-444 -550 0
-444 -551 0
-444 -552 0
-444 -553 0
-444 -554 0
-444 -555 0
-444 -556 0
-444 -557 0
-444 -558 0
-444 -559 0
-444 -560 0
-445 -446 0
-445 -447 0
-445 -448 0
-445 -449 0
-445 -450 0
-445 -451 0
-445 -452 0
-445 -453 0
-445 -454 0
-445 -455 0
-445 -456 0
-445 -457 0
-445 -458 0
-445 -459 0
-445 -460 0
-445 -461 0
-445 -462 0
-445 -463 0
-445 -464 0
-445 -465 0
-445 -466 0
-445 -467 0
-445 -468 0
-445 -469 0
-445 -470 0
-445 -471 0
-445 -472 0
-445 -473 0
-445 -474 0
-445 -475 0
-445 -476 0
-445 -477 0
-445 -478 0
-445 -479 0
-445 -480 0
-445 -481 0
-445 -482 0
-445 -483 0
-445 -484 0
-445 -485 0
-445 -486 0
-445 -487 0
-445 -488 0
-445 -489 0
-445 -490 0
-445 -491 0
-445 -492 0
-445 -493 0
-445 -494 0
-445 -495 0
-445 -496 0
-445 -497 0
-445 -498 0
-445 -499 0
-445 -500 0
-445 -501 0
-445 -502 0
-445 -503 0
-445 -504 0
-445 -505 0
-445 -506 0
-445 -507 0
-445 -508 0
-445 -509 0
-445 -510 0
-445 -511 0
-445 -512 0
-445 -513 0
-445 -514 0
-445 -515 0
-445 -516 0
-445 -517 0
-445 -518 0
-445 -519 0
-445 -520 0
-445 -521 0
-445 -522 0
-445 -523 0
-445 -524 0
-445 -525 0
-445 -526 0
-445 -527 0
-445 -528 0
-445 -529 0
-445 -530 0
-445 -531 0
-445 -532 0
-445 -533 0
-445 -534 0
-445 -535 0
-445 -536 0
-445 -537 0
-445 -538 0
-445 -539 0
-445 -540 0
-445 -541 0
-445 -542 0
-445 -543 0
-445 -544 0
-445 -545 0
-445 -546 0
-445 -547 0
-445 -548 0
-445 -549 0
-445 -550 0
-445 -551 0
-445 -552 0
-445 -553 0
-445 -554 0
-445 -555 0
-445 -556 0
-445 -557 0
-445 -558 0
-445 -559 0
-445 -560 0
-446 -447 0
-446 -448 0
-446 -449 0
-446 -450 0
-446 -451 0
-446 -452 0
-446 -453 0
-446 -454 0
-446 -455 0
-446 -456 0
-446 -457 0
-446 -458 0
-446 -459 0
-446 -460 0
-446 -461 0
-446 -462 0
-446 -463 0
-446 -464 0
-446 -465 0
-446 -466 0
-446 -467 0
-446 -468 0
-446 -469 0
-446 -470 0
-446 -471 0
-446 -472 0
-446 -473 0
-446 -474 0
-446 -475 0
-446 -476 0
-446 -477 0
-446 -478 0
-446 -479 0
-446 -480 0
-446 -481 0
-446 -482 0
-446 -483 0
-446 -484 0
-446 -485 0
-446 -486 0
-446 -487 0
-446 -488 0
-446 -489 0
-446 -490 0
-446 -491 0
-446 -492 0
-446 -493 0
-446 -494 0
-446 -495 0
-446 -496 0
-446 -497 0
-446 -498 0
-446 -499 0
-446 -500 0
-446 -501 0
-446 -502 0
-446 -503 0
-446 -504 0
-446 -505 0
-446 -506 0
-446 -507 0
-446 -508 0
-446 -509 0
-446 -510 0
-446 -511 0
-446 -512 0
-446 -513 0
-446 -514 0
-446 -515 0
-446 -516 0
-446 -517 0
-446 -518 0
-446 -519 0
-446 -520 0
-446 -521 0
-446 -522 0
-446 -523 0
-446 -524 0
-446 -525 0
-446 -526 0
-446 -527 0
-446 -528 0
-446 -529 0
-446 -530 0
-446 -531 0
-446 -532 0
-446 -533 0
-446 -534 0
-446 -535 0
-446 -536 0
-446 -537 0
-446 -538 0
-446 -539 0
-446 -540 0
-446 -541 0
-446 -542 0
-446 -543 0
-446 -544 0
-446 -545 0
-446 -546 0
-446 -547 0
-446 -548 0
-446 -549 0
-446 -550 0
-446 -551 0
-446 -552 0
-446 -553 0
-446 -554 0
-446 -555 0
-446 -556 0
-446 -557 0
-446 -558 0
-446 -559 0
-446 -560 0
-447 -448 0
-447 -449 0
-447 -450 0
-447 -451 0
-447 -452 0
-447 -453 0
-447 -454 0
-447 -455 0
-447 -456 0
-447 -457 0
-447 -458 0
-447 -459 0
-447 -460 0
-447 -461 0
-447 -462 0
-447 -463 0
-447 -464 0
-447 -465 0
-447 -466 0
-447 -467 0
-447 -468 0
-447 -469 0
-447 -470 0
-447 -471 0
-447 -472 0
-447 -473 0
-447 -474 0
-447 -475 0
-447 -476 0
-447 -477 0
-447 -478 0
-447 -479 0
-447 -480 0
-447 -481 0
-447 -482 0
-447 -483 0
-447 -484 0
-447 -485 0
-447 -486 0
-447 -487 0
-447 -488 0
-447 -489 0
-447 -490 0
-447 -491 0
-447 -492 0
-447 -493 0
-447 -494 0
-447 -495 0
-447 -496 0
-447 -497 0
-447 -498 0
-447 -499 0
-447 -500 0
-447 -501 0
-447 -502 0
-447 -503 0
-447 -504 0
-447 -505 0
-447 -506 0
-447 -507 0
-447 -508 0
-447 -509 0
-447 -510 0
-447 -511 0
-447 -512 0
-447 -513 0
-447 -514 0
-447 -515 0
-447 -516 0
-447 -517 0
-447 -518 0
-447 -519 0
-447 -520 0
-447 -521 0
-447 -522 0
-447 -523 0
-447 -524 0
-447 -525 0
-447 -526 0
-447 -527 0
-447 -528 0
-447 -529 0
-447 -530 0
-447 -531 0
-447 -532 0
-447 -533 0
-447 -534 0
-447 -535 0
-447 -536 0
-447 -537 0
-447 -538 0
-447 -539 0
-447 -540 0
-447 -541 0
-447 -542 0
-447 -543 0
-447 -544 0
-447 -545 0
-447 -546 0
-447 -547 0
-447 -548 0
-447 -549 0
-447 -550 0
-447 -551 0
-447 -552 0
-447 -553 0
-447 -554 0
-447 -555 0
-447 -556 0
-447 -557 0
-447 -558 0
-447 -559 0
-447 -560 0
-448 -449 0
-448 -450 0
-448 -451 0
-448 -452 0
-448 -453 0
-448 -454 0
-448 -455 0
-448 -456 0
-448 -457 0
-448 -458 0
-448 -459 0
-448 -460 0
-448 -461 0
-448 -462 0
-448 -463 0
-448 -464 0
-448 -465 0
-448 -466 0
-448 -467 0
-448 -468 0
-448 -469 0
-448 -470 0
-448 -471 0
-448 -472 0
-448 -473 0
-448 -474 0
-448 -475 0
-448 -476 0
-448 -477 0
-448 -478 0
-448 -479 0
-448 -480 0
-448 -481 0
-448 -482 0
-448 -483 0
-448 -484 0
-448 -485 0
-448 -486 0
-448 -487 0
-448 -488 0
-448 -489 0
-448 -490 0
-448 -491 0
-448 -492 0
-448 -493 0
-448 -494 0
-448 -495 0
-448 -496 0
-448 -497 0
-448 -498 0
-448 -499 0
-448 -500 0
-448 -501 0
-448 -502 0
-448 -503 0
-448 -504 0
-448 -505 0
-448 -506 0
-448 -507 0
-448 -508 0
-448 -509 0
-448 -510 0
-448 -511 0
-448 -512 0
-448 -513 0
-448 -514 0
-448 -515 0
-448 -516 0
-448 -517 0
-448 -518 0
-448 -519 0
-448 -520 0
-448 -521 0
-448 -522 0
-448 -523 0
-448 -524 0
-448 -525 0
-448 -526 0
-448 -527 0
-448 -528 0
-448 -529 0
-448 -530 0
-448 -531 0
-448 -532 0
-448 -533 0
-448 -534 0
-448 -535 0
-448 -536 0
-448 -537 0
-448 -538 0
-448 -539 0
-448 -540 0
-448 -541 0
-448 -542 0
-448 -543 0
-448 -544 0
-448 -545 0
-448 -546 0
-448 -547 0
-448 -548 0
-448 -549 0
-448 -550 0
-448 -551 0
-448 -552 0
-448 -553 0
-448 -554 0
-448 -555 0
-448 -556 0
-448 -557 0
-448 -558 0
-448 -559 0
-448 -560 0
-449 -450 0
-449 -451 0
-449 -452 0
-449 -453 0
-449 -454 0
-449 -455 0
-449 -456 0
-449 -457 0
-449 -458 0
-449 -459 0
-449 -460 0
-449 -461 0
-449 -462 0
-449 -463 0
-449 -464 0
-449 -465 0
-449 -466 0
-449 -467 0
-449 -468 0
-449 -469 0
-449 -470 0
-449 -471 0
-449 -472 0
-449 -473 0
-449 -474 0
-449 -475 0
-449 -476 0
-449 -477 0
-449 -478 0
-449 -479 0
-449 -480 0
-449 -481 0
-449 -482 0
-449 -483 0
-449 -484 0
-449 -485 0
-449 -486 0
-449 -487 0
-449 -488 0
-449 -489 0
-449 -490 0
-449 -491 0
-449 -492 0
-449 -493 0
-449 -494 0
-449 -495 0
-449 -496 0
-449 -497 0
-449 -498 0
-449 -499 0
-449 -500 0
-449 -501 0
-449 -502 0
-449 -503 0
-449 -504 0
-449 -505 0
-449 -506 0
-449 -507 0
-449 -508 0
-449 -509 0
-449 -510 0
-449 -511 0
-449 -512 0
-449 -513 0
-449 -514 0
-449 -515 0
-449 -516 0
-449 -517 0
-449 -518 0
-449 -519 0
-449 -520 0
-449 -521 0
-449 -522 0
-449 -523 0
-449 -524 0
-449 -525 0
-449 -526 0
-449 -527 0
-449 -528 0
-449 -529 0
-449 -530 0
-449 -531 0
-449 -532 0
-449 -533 0
-449 -534 0
-449 -535 0
-449 -536 0
-449 -537 0
-449 -538 0
-449 -539 0
-449 -540 0
-449 -541 0
-449 -542 0
-449 -543 0
-449 -544 0
-449 -545 0
-449 -546 0
-449 -547 0
-449 -548 0
-449 -549 0
-449 -550 0
-449 -551 0
-449 -552 0
-449 -553 0
-449 -554 0
-449 -555 0
-449 -556 0
-449 -557 0
-449 -558 0
-449 -559 0
-449 -560 0
-450 -451 0
-450 -452 0
-450 -453 0
-450 -454 0
-450 -455 0
-450 -456 0
-450 -457 0
-450 -458 0
-450 -459 0
-450 -460 0
-450 -461 0
-450 -462 0
-450 -463 0
-450 -464 0
-450 -465 0
-450 -466 0
-450 -467 0
-450 -468 0
-450 -469 0
-450 -470 0
-450 -471 0
-450 -472 0
-450 -473 0
-450 -474 0
-450 -475 0
-450 -476 0
-450 -477 0
-450 -478 0
-450 -479 0
-450 -480 0
-450 -481 0
-450 -482 0
-450 -483 0
-450 -484 0
-450 -485 0
-450 -486 0
-450 -487 0
-450 -488 0
-450 -489 0
-450 -490 0
-450 -491 0
-450 -492 0
-450 -493 0
-450 -494 0
-450 -495 0
-450 -496 0
-450 -497 0
-450 -498 0
-450 -499 0
-450 -500 0
-450 -501 0
-450 -502 0
-450 -503 0
-450 -504 0
-450 -505 0
-450 -506 0
-450 -507 0
-450 -508 0
-450 -509 0
-450 -510 0
-450 -511 0
-450 -512 0
-450 -513 0
-450 -514 0
-450 -515 0
-450 -516 0
-450 -517 0
-450 -518 0
-450 -519 0
-450 -520 0
-450 -521 0
-450 -522 0
-450 -523 0
-450 -524 0
-450 -525 0
-450 -526 0
-450 -527 0
-450 -528 0
-450 -529 0
-450 -530 0
-450 -531 0
-450 -532 0
-450 -533 0
-450 -534 0
-450 -535 0
-450 -536 0
-450 -537 0
-450 -538 0
-450 -539 0
-450 -540 0
-450 -541 0
-450 -542 0
-450 -543 0
-450 -544 0
-450 -545 0
-450 -546 0
-450 -547 0
-450 -548 0
-450 -549 0
-450 -550 0
-450 -551 0
-450 -552 0
-450 -553 0
-450 -554 0
-450 -555 0
-450 -556 0
-450 -557 0
-450 -558 0
-450 -559 0
-450 -560 0
-451 -452 0
-451 -453 0
-451 -454 0
-451 -455 0
-451 -456 0
-451 -457 0
-451 -458 0
-451 -459 0
-451 -460 0
-451 -461 0
-451 -462 0
-451 -463 0
-451 -464 0
-451 -465 0
-451 -466 0
-451 -467 0
-451 -468 0
-451 -469 0
-451 -470 0
-451 -471 0
-451 -472 0
-451 -473 0
-451 -474 0
-451 -475 0
-451 -476 0
-451 -477 0
-451 -478 0
-451 -479 0
-451 -480 0
-451 -481 0
-451 -482 0
-451 -483 0
-451 -484 0
-451 -485 0
-451 -486 0
-451 -487 0
-451 -488 0
-451 -489 0
-451 -490 0
-451 -491 0
-451 -492 0
-451 -493 0
-451 -494 0
-451 -495 0
-451 -496 0
-451 -497 0
-451 -498 0
-451 -499 0
-451 -500 0
-451 -501 0
-451 -502 0
-451 -503 0
-451 -504 0
-451 -505 0
-451 -506 0
-451 -507 0
-451 -508 0
-451 -509 0
-451 -510 0
-451 -511 0
-451 -512 0
-451 -513 0
-451 -514 0
-451 -515 0
-451 -516 0
-451 -517 0
-451 -518 0
-451 -519 0
-451 -520 0
-451 -521 0
-451 -522 0
-451 -523 0
-451 -524 0
-451 -525 0
-451 -526 0
-451 -527 0
-451 -528 0
-451 -529 0
-451 -530 0
-451 -531 0
-451 -532 0
-451 -533 0
-451 -534 0
-451 -535 0
-451 -536 0
-451 -537 0
-451 -538 0
-451 -539 0
-451 -540 0
-451 -541 0
-451 -542 0
-451 -543 0
-451 -544 0
-451 -545 0
-451 -546 0
-451 -547 0
-451 -548 0
-451 -549 0
-451 -550 0
-451 -551 0
-451 -552 0
-451 -553 0
-451 -554 0
-451 -555 0
-451 -556 0
-451 -557 0
-451 -558 0
-451 -559 0
-451 -560 0
-452 -453 0
-452 -454 0
-452 -455 0
-452 -456 0
-452 -457 0
-452 -458 0
-452 -459 0
-452 -460 0
-452 -461 0
-452 -462 0
-452 -463 0
-452 -464 0
-452 -465 0
-452 -466 0
-452 -467 0
-452 -468 0
-452 -469 0
-452 -470 0
-452 -471 0
-452 -472 0
-452 -473 0
-452 -474 0
-452 -475 0
-452 -476 0
-452 -477 0
-452 -478 0
-452 -479 0
-452 -480 0
-452 -481 0
-452 -482 0
-452 -483 0
-452 -484 0
-452 -485 0
-452 -486 0
-452 -487 0
-452 -488 0
-452 -489 0
-452 -490 0
-452 -491 0
-452 -492 0
-452 -493 0
-452 -494 0
-452 -495 0
-452 -496 0
-452 -497 0
-452 -498 0
-452 -499 0
-452 -500 0
-452 -501 0
-452 -502 0
-452 -503 0
-452 -504 0
-452 -505 0
-452 -506 0
-452 -507 0
-452 -508 0
-452 -509 0
-452 -510 0
-452 -511 0
-452 -512 0
-452 -513 0
-452 -514 0
-452 -515 0
-452 -516 0
-452 -517 0
-452 -518 0
-452 -519 0
-452 -520 0
-452 -521 0
-452 -522 0
-452 -523 0
-452 -524 0
-452 -525 0
-452 -526 0
-452 -527 0
-452 -528 0
-452 -529 0
-452 -530 0
-452 -531 0
-452 -532 0
-452 -533 0
-452 -534 0
-452 -535 0
-452 -536 0
-452 -537 0
-452 -538 0
-452 -539 0
-452 -540 0
-452 -541 0
-452 -542 0
-452 -543 0
-452 -544 0
-452 -545 0
-452 -546 0
-452 -547 0
-452 -548 0
-452 -549 0
-452 -550 0
-452 -551 0
-452 -552 0
-452 -553 0
-452 -554 0
-452 -555 0
-452 -556 0
-452 -557 0
-452 -558 0
-452 -559 0
-452 -560 0
-453 -454 0
-453 -455 0
-453 -456 0
-453 -457 0
-453 -458 0
-453 -459 0
-453 -460 0
-453 -461 0
-453 -462 0
-453 -463 0
-453 -464 0
-453 -465 0
-453 -466 0
-453 -467 0
-453 -468 0
-453 -469 0
-453 -470 0
-453 -471 0
-453 -472 0
-453 -473 0
-453 -474 0
-453 -475 0
-453 -476 0
-453 -477 0
-453 -478 0
-453 -479 0
-453 -480 0
-453 -481 0
-453 -482 0
-453 -483 0
-453 -484 0
-453 -485 0
-453 -486 0
-453 -487 0
-453 -488 0
-453 -489 0
-453 -490 0
-453 -491 0
-453 -492 0
-453 -493 0
-453 -494 0
-453 -495 0
-453 -496 0
-453 -497 0
-453 -498 0
-453 -499 0
-453 -500 0
-453 -501 0
-453 -502 0
-453 -503 0
-453 -504 0
-453 -505 0
-453 -506 0
-453 -507 0
-453 -508 0
-453 -509 0
-453 -510 0
-453 -511 0
-453 -512 0
-453 -513 0
-453 -514 0
-453 -515 0
-453 -516 0
-453 -517 0
-453 -518 0
-453 -519 0
-453 -520 0
-453 -521 0
-453 -522 0
-453 -523 0
-453 -524 0
-453 -525 0
-453 -526 0
-453 -527 0
-453 -528 0
-453 -529 0
-453 -530 0
-453 -531 0
-453 -532 0
-453 -533 0
-453 -534 0
-453 -535 0
-453 -536 0
-453 -537 0
-453 -538 0
-453 -539 0
-453 -540 0
-453 -541 0
-453 -542 0
-453 -543 0
-453 -544 0
-453 -545 0
-453 -546 0
-453 -547 0
-453 -548 0
-453 -549 0
-453 -550 0
-453 -551 0
-453 -552 0
-453 -553 0
-453 -554 0
-453 -555 0
-453 -556 0
-453 -557 0
-453 -558 0
-453 -559 0
-453 -560 0
-454 -455 0
-454 -456 0
-454 -457 0
-454 -458 0
-454 -459 0
-454 -460 0
-454 -461 0
-454 -462 0
-454 -463 0
-454 -464 0
-454 -465 0
-454 -466 0
-454 -467 0
-454 -468 0
-454 -469 0
-454 -470 0
-454 -471 0
-454 -472 0
-454 -473 0
-454 -474 0
-454 -475 0
-454 -476 0
-454 -477 0
-454 -478 0
-454 -479 0
-454 -480 0
-454 -481 0
-454 -482 0
-454 -483 0
-454 -484 0
-454 -485 0
-454 -486 0
-454 -487 0
-454 -488 0
-454 -489 0
-454 -490 0
-454 -491 0
-454 -492 0
-454 -493 0
-454 -494 0
-454 -495 0
-454 -496 0
-454 -497 0
-454 -498 0
-454 -499 0
-454 -500 0
-454 -501 0
-454 -502 0
-454 -503 0
-454 -504 0
-454 -505 0
-454 -506 0
-454 -507 0
-454 -508 0
-454 -509 0
-454 -510 0
-454 -511 0
-454 -512 0
-454 -513 0
-454 -514 0
-454 -515 0
-454 -516 0
-454 -517 0
-454 -518 0
-454 -519 0
-454 -520 0
-454 -521 0
-454 -522 0
-454 -523 0
-454 -524 0
-454 -525 0
-454 -526 0
-454 -527 0
-454 -528 0
-454 -529 0
-454 -530 0
-454 -531 0
-454 -532 0
-454 -533 0
-454 -534 0
-454 -535 0
-454 -536 0
-454 -537 0
-454 -538 0
-454 -539 0
-454 -540 0
-454 -541 0
-454 -542 0
-454 -543 0
-454 -544 0
-454 -545 0
-454 -546 0
-454 -547 0
-454 -548 0
-454 -549 0
-454 -550 0
-454 -551 0
-454 -552 0
-454 -553 0
-454 -554 0
-454 -555 0
-454 -556 0
-454 -557 0
-454 -558 0
-454 -559 0
-454 -560 0
-455 -456 0
-455 -457 0
-455 -458 0
-455 -459 0
-455 -460 0
-455 -461 0
-455 -462 0
-455 -463 0
-455 -464 0
-455 -465 0
-455 -466 0
-455 -467 0
-455 -468 0
-455 -469 0
-455 -470 0
-455 -471 0
-455 -472 0
-455 -473 0
-455 -474 0
-455 -475 0
-455 -476 0
-455 -477 0
-455 -478 0
-455 -479 0
-455 -480 0
-455 -481 0
-455 -482 0
-455 -483 0
-455 -484 0
-455 -485 0
-455 -486 0
-455 -487 0
-455 -488 0
-455 -489 0
-455 -490 0
-455 -491 0
-455 -492 0
-455 -493 0
-455 -494 0
-455 -495 0
-455 -496 0
-455 -497 0
-455 -498 0
-455 -499 0
-455 -500 0
-455 -501 0
-455 -502 0
-455 -503 0
-455 -504 0
-455 -505 0
-455 -506 0
-455 -507 0
-455 -508 0
-455 -509 0
-455 -510 0
-455 -511 0
-455 -512 0
-455 -513 0
-455 -514 0
-455 -515 0
-455 -516 0
-455 -517 0
-455 -518 0
-455 -519 0
-455 -520 0
-455 -521 0
-455 -522 0
-455 -523 0
-455 -524 0
-455 -525 0
-455 -526 0
-455 -527 0
-455 -528 0
-455 -529 0
-455 -530 0
-455 -531 0
-455 -532 0
-455 -533 0
-455 -534 0
-455 -535 0
-455 -536 0
-455 -537 0
-455 -538 0
-455 -539 0
-455 -540 0
-455 -541 0
-455 -542 0
-455 -543 0
-455 -544 0
-455 -545 0
-455 -546 0
-455 -547 0
-455 -548 0
-455 -549 0
-455 -550 0
-455 -551 0
-455 -552 0
-455 -553 0
-455 -554 0
-455 -555 0
-455 -556 0
-455 -557 0
-455 -558 0
-455 -559 0
-455 -560 0
-456 -457 0
-456 -458 0
-456 -459 0
-456 -460 0
-456 -461 0
-456 -462 0
-456 -463 0
-456 -464 0
-456 -465 0
-456 -466 0
-456 -467 0
-456 -468 0
-456 -469 0
-456 -470 0
-456 -471 0
-456 -472 0
-456 -473 0
-456 -474 0
-456 -475 0
-456 -476 0
-456 -477 0
-456 -478 0
-456 -479 0
-456 -480 0
-456 -481 0
-456 -482 0
-456 -483 0
-456 -484 0
-456 -485 0
-456 -486 0
-456 -487 0
-456 -488 0
-456 -489 0
-456 -490 0
-456 -491 0
-456 -492 0
-456 -493 0
-456 -494 0
-456 -495 0
-456 -496 0
-456 -497 0
-456 -498 0
-456 -499 0
-456 -500 0
-456 -501 0
-456 -502 0
-456 -503 0
-456 -504 0
-456 -505 0
-456 -506 0
-456 -507 0
-456 -508 0
-456 -509 0
-456 -510 0
-456 -511 0
-456 -512 0
-456 -513 0
-456 -514 0
-456 -515 0
-456 -516 0
-456 -517 0
-456 -518 0
-456 -519 0
-456 -520 0
-456 -521 0
-456 -522 0
-456 -523 0
-456 -524 0
-456 -525 0
-456 -526 0
-456 -527 0
-456 -528 0
-456 -529 0
-456 -530 0
-456 -531 0
-456 -532 0
-456 -533 0
-456 -534 0
-456 -535 0
-456 -536 0
-456 -537 0
-456 -538 0
-456 -539 0
-456 -540 0
-456 -541 0
-456 -542 0
-456 -543 0
-456 -544 0
-456 -545 0
-456 -546 0
-456 -547 0
-456 -548 0
-456 -549 0
-456 -550 0
-456 -551 0
-456 -552 0
-456 -553 0
-456 -554 0
-456 -555 0
-456 -556 0
-456 -557 0
-456 -558 0
-456 -559 0
-456 -560 0
-457 -458 0
-457 -459 0
-457 -460 0
-457 -461 0
-457 -462 0
-457 -463 0
-457 -464 0
-457 -465 0
-457 -466 0
-457 -467 0
-457 -468 0
-457 -469 0
-457 -470 0
-457 -471 0
-457 -472 0
-457 -473 0
-457 -474 0
-457 -475 0
-457 -476 0
-457 -477 0
-457 -478 0
-457 -479 0
-457 -480 0
-457 -481 0
-457 -482 0
-457 -483 0
-457 -484 0
-457 -485 0
-457 -486 0
-457 -487 0
-457 -488 0
-457 -489 0
-457 -490 0
-457 -491 0
-457 -492 0
-457 -493 0
-457 -494 0
-457 -495 0
-457 -496 0
-457 -497 0
-457 -498 0
-457 -499 0
-457 -500 0
-457 -501 0
-457 -502 0
-457 -503 0
-457 -504 0
-457 -505 0
-457 -506 0
-457 -507 0
-457 -508 0
-457 -509 0
-457 -510 0
-457 -511 0
-457 -512 0
-457 -513 0
-457 -514 0
-457 -515 0
-457 -516 0
-457 -517 0
-457 -518 0
-457 -519 0
-457 -520 0
-457 -521 0
-457 -522 0
-457 -523 0
-457 -524 0
-457 -525 0
-457 -526 0
-457 -527 0
-457 -528 0
-457 -529 0
-457 -530 0
-457 -531 0
-457 -532 0
-457 -533 0
-457 -534 0
-457 -535 0
-457 -536 0
-457 -537 0
-457 -538 0
-457 -539 0
-457 -540 0
-457 -541 0
-457 -542 0
-457 -543 0
-457 -544 0
-457 -545 0
-457 -546 0
-457 -547 0
-457 -548 0
-457 -549 0
-457 -550 0
-457 -551 0
-457 -552 0
-457 -553 0
-457 -554 0
-457 -555 0
-457 -556 0
-457 -557 0
-457 -558 0
-457 -559 0
-457 -560 0
-458 -459 0
-458 -460 0
-458 -461 0
-458 -462 0
-458 -463 0
-458 -464 0
-458 -465 0
-458 -466 0
-458 -467 0
-458 -468 0
-458 -469 0
-458 -470 0
-458 -471 0
-458 -472 0
-458 -473 0
-458 -474 0
-458 -475 0
-458 -476 0
-458 -477 0
-458 -478 0
-458 -479 0
-458 -480 0
-458 -481 0
-458 -482 0
-458 -483 0
-458 -484 0
-458 -485 0
-458 -486 0
-458 -487 0
-458 -488 0
-458 -489 0
-458 -490 0
-458 -491 0
-458 -492 0
-458 -493 0
-458 -494 0
-458 -495 0
-458 -496 0
-458 -497 0
-458 -498 0
-458 -499 0
-458 -500 0
-458 -501 0
-458 -502 0
-458 -503 0
-458 -504 0
-458 -505 0
-458 -506 0
-458 -507 0
-458 -508 0
-458 -509 0
-458 -510 0
-458 -511 0
-458 -512 0
-458 -513 0
-458 -514 0
-458 -515 0
-458 -516 0
-458 -517 0
-458 -518 0
-458 -519 0
-458 -520 0
-458 -521 0
-458 -522 0
-458 -523 0
-458 -524 0
-458 -525 0
-458 -526 0
-458 -527 0
-458 -528 0
-458 -529 0
-458 -530 0
-458 -531 0
-458 -532 0
-458 -533 0
-458 -534 0
-458 -535 0
-458 -536 0
-458 -537 0
-458 -538 0
-458 -539 0
-458 -540 0
-458 -541 0
-458 -542 0
-458 -543 0
-458 -544 0
-458 -545 0
-458 -546 0
-458 -547 0
-458 -548 0
-458 -549 0
-458 -550 0
-458 -551 0
-458 -552 0
-458 -553 0
-458 -554 0
-458 -555 0
-458 -556 0
-458 -557 0
-458 -558 0
-458 -559 0
-458 -560 0
-459 -460 0
-459 -461 0
-459 -462 0
-459 -463 0
-459 -464 0
-459 -465 0
-459 -466 0
-459 -467 0
-459 -468 0
-459 -469 0
-459 -470 0
-459 -471 0
-459 -472 0
-459 -473 0
-459 -474 0
-459 -475 0
-459 -476 0
-459 -477 0
-459 -478 0
-459 -479 0
-459 -480 0
-459 -481 0
-459 -482 0
-459 -483 0
-459 -484 0
-459 -485 0
-459 -486 0
-459 -487 0
-459 -488 0
-459 -489 0
-459 -490 0
-459 -491 0
-459 -492 0
-459 -493 0
-459 -494 0
-459 -495 0
-459 -496 0
-459 -497 0
-459 -498 0
-459 -499 0
-459 -500 0
-459 -501 0
-459 -502 0
-459 -503 0
-459 -504 0
-459 -505 0
-459 -506 0
-459 -507 0
-459 -508 0
-459 -509 0
-459 -510 0
-459 -511 0
-459 -512 0
-459 -513 0
-459 -514 0
-459 -515 0
-459 -516 0
-459 -517 0
-459 -518 0
-459 -519 0
-459 -520 0
-459 -521 0
-459 -522 0
-459 -523 0
-459 -524 0
-459 -525 0
-459 -526 0
-459 -527 0
-459 -528 0
-459 -529 0
-459 -530 0
-459 -531 0
-459 -532 0
-459 -533 0
-459 -534 0
-459 -535 0
-459 -536 0
-459 -537 0
-459 -538 0
-459 -539 0
-459 -540 0
-459 -541 0
-459 -542 0
-459 -543 0
-459 -544 0
-459 -545 0
-459 -546 0
-459 -547 0
-459 -548 0
-459 -549 0
-459 -550 0
-459 -551 0
-459 -552 0
-459 -553 0
-459 -554 0
-459 -555 0
-459 -556 0
-459 -557 0
-459 -558 0
-459 -559 0
-459 -560 0
-460 -461 0
-460 -462 0
-460 -463 0
-460 -464 0
-460 -465 0
-460 -466 0
-460 -467 0
-460 -468 0
-460 -469 0
-460 -470 0
-460 -471 0
-460 -472 0
-460 -473 0
-460 -474 0
-460 -475 0
-460 -476 0
-460 -477 0
-460 -478 0
-460 -479 0
-460 -480 0
-460 -481 0
-460 -482 0
-460 -483 0
-460 -484 0
-460 -485 0
-460 -486 0
-460 -487 0
-460 -488 0
-460 -489 0
-460 -490 0
-460 -491 0
-460 -492 0
-460 -493 0
-460 -494 0
-460 -495 0
-460 -496 0
-460 -497 0
-460 -498 0
-460 -499 0
-460 -500 0
-460 -501 0
-460 -502 0
-460 -503 0
-460 -504 0
-460 -505 0
-460 -506 0
-460 -507 0
-460 -508 0
-460 -509 0
-460 -510 0
-460 -511 0
-460 -512 0
-460 -513 0
-460 -514 0
-460 -515 0
-460 -516 0
-460 -517 0
-460 -518 0
-460 -519 0
-460 -520 0
-460 -521 0
-460 -522 0
-460 -523 0
-460 -524 0
-460 -525 0
-460 -526 0
-460 -527 0
-460 -528 0
-460 -529 0
-460 -530 0
-460 -531 0
-460 -532 0
-460 -533 0
-460 -534 0
-460 -535 0
-460 -536 0
-460 -537 0
-460 -538 0
-460 -539 0
-460 -540 0
-460 -541 0
-460 -542 0
-460 -543 0
-460 -544 0
-460 -545 0
-460 -546 0
-460 -547 0
-460 -548 0
-460 -549 0
-460 -550 0
-460 -551 0
-460 -552 0
-460 -553 0
-460 -554 0
-460 -555 0
-460 -556 0
-460 -557 0
-460 -558 0
-460 -559 0
-460 -560 0
-461 -462 0
-461 -463 0
-461 -464 0
-461 -465 0
-461 -466 0
-461 -467 0
-461 -468 0
-461 -469 0
-461 -470 0
-461 -471 0
-461 -472 0
-461 -473 0
-461 -474 0
-461 -475 0
-461 -476 0
-461 -477 0
-461 -478 0
-461 -479 0
-461 -480 0
-461 -481 0
-461 -482 0
-461 -483 0
-461 -484 0
-461 -485 0
-461 -486 0
-461 -487 0
-461 -488 0
-461 -489 0
-461 -490 0
-461 -491 0
-461 -492 0
-461 -493 0
-461 -494 0
-461 -495 0
-461 -496 0
-461 -497 0
-461 -498 0
-461 -499 0
-461 -500 0
-461 -501 0
-461 -502 0
-461 -503 0
-461 -504 0
-461 -505 0
-461 -506 0
-461 -507 0
-461 -508 0
-461 -509 0
-461 -510 0
-461 -511 0
-461 -512 0
-461 -513 0
-461 -514 0
-461 -515 0
-461 -516 0
-461 -517 0
-461 -518 0
-461 -519 0
-461 -520 0
-461 -521 0
-461 -522 0
-461 -523 0
-461 -524 0
-461 -525 0
-461 -526 0
-461 -527 0
-461 -528 0
-461 -529 0
-461 -530 0
-461 -531 0
-461 -532 0
-461 -533 0
-461 -534 0
-461 -535 0
-461 -536 0
-461 -537 0
-461 -538 0
-461 -539 0
-461 -540 0
-461 -541 0
-461 -542 0
-461 -543 0
-461 -544 0
-461 -545 0
-461 -546 0
-461 -547 0
-461 -548 0
-461 -549 0
-461 -550 0
-461 -551 0
-461 -552 0
-461 -553 0
-461 -554 0
-461 -555 0
-461 -556 0
-461 -557 0
-461 -558 0
-461 -559 0
-461 -560 0
-462 -463 0
-462 -464 0
-462 -465 0
-462 -466 0
-462 -467 0
-462 -468 0
-462 -469 0
-462 -470 0
-462 -471 0
-462 -472 0
-462 -473 0
-462 -474 0
-462 -475 0
-462 -476 0
-462 -477 0
-462 -478 0
-462 -479 0
-462 -480 0
-462 -481 0
-462 -482 0
-462 -483 0
-462 -484 0
-462 -485 0
-462 -486 0
-462 -487 0
-462 -488 0
-462 -489 0
-462 -490 0
-462 -491 0
-462 -492 0
-462 -493 0
-462 -494 0
-462 -495 0
-462 -496 0
-462 -497 0
-462 -498 0
-462 -499 0
-462 -500 0
-462 -501 0
-462 -502 0
-462 -503 0
-462 -504 0
-462 -505 0
-462 -506 0
-462 -507 0
-462 -508 0
-462 -509 0
-462 -510 0
-462 -511 0
-462 -512 0
-462 -513 0
-462 -514 0
-462 -515 0
-462 -516 0
-462 -517 0
-462 -518 0
-462 -519 0
-462 -520 0
-462 -521 0
-462 -522 0
-462 -523 0
-462 -524 0
-462 -525 0
-462 -526 0
-462 -527 0
-462 -528 0
-462 -529 0
-462 -530 0
-462 -531 0
-462 -532 0
-462 -533 0
-462 -534 0
-462 -535 0
-462 -536 0
-462 -537 0
-462 -538 0
-462 -539 0
-462 -540 0
-462 -541 0
-462 -542 0
-462 -543 0
-462 -544 0
-462 -545 0
-462 -546 0
-462 -547 0
-462 -548 0
-462 -549 0
-462 -550 0
-462 -551 0
-462 -552 0
-462 -553 0
-462 -554 0
-462 -555 0
-462 -556 0
-462 -557 0
-462 -558 0
-462 -559 0
-462 -560 0
-463 -464 0
-463 -465 0
-463 -466 0
-463 -467 0
-463 -468 0
-463 -469 0
-463 -470 0
-463 -471 0
-463 -472 0
-463 -473 0
-463 -474 0
-463 -475 0
-463 -476 0
-463 -477 0
-463 -478 0
-463 -479 0
-463 -480 0
-463 -481 0
-463 -482 0
-463 -483 0
-463 -484 0
-463 -485 0
-463 -486 0
-463 -487 0
-463 -488 0
-463 -489 0
-463 -490 0
-463 -491 0
-463 -492 0
-463 -493 0
-463 -494 0
-463 -495 0
-463 -496 0
-463 -497 0
-463 -498 0
-463 -499 0
-463 -500 0
-463 -501 0
-463 -502 0
-463 -503 0
-463 -504 0
-463 -505 0
-463 -506 0
-463 -507 0
-463 -508 0
-463 -509 0
-463 -510 0
-463 -511 0
-463 -512 0
-463 -513 0
-463 -514 0
-463 -515 0
-463 -516 0
-463 -517 0
-463 -518 0
-463 -519 0
-463 -520 0
-463 -521 0
-463 -522 0
-463 -523 0
-463 -524 0
-463 -525 0
-463 -526 0
-463 -527 0
-463 -528 0
-463 -529 0
-463 -530 0
-463 -531 0
-463 -532 0
-463 -533 0
-463 -534 0
-463 -535 0
-463 -536 0
-463 -537 0
-463 -538 0
-463 -539 0
-463 -540 0
-463 -541 0
-463 -542 0
-463 -543 0
-463 -544 0
-463 -545 0
-463 -546 0
-463 -547 0
-463 -548 0
-463 -549 0
-463 -550 0
-463 -551 0
-463 -552 0
-463 -553 0
-463 -554 0
-463 -555 0
-463 -556 0
-463 -557 0
-463 -558 0
-463 -559 0
-463 -560 0
-464 -465 0
-464 -466 0
-464 -467 0
-464 -468 0
-464 -469 0
-464 -470 0
-464 -471 0
-464 -472 0
-464 -473 0
-464 -474 0
-464 -475 0
-464 -476 0
-464 -477 0
-464 -478 0
-464 -479 0
-464 -480 0
-464 -481 0
-464 -482 0
-464 -483 0
-464 -484 0
-464 -485 0
-464 -486 0
-464 -487 0
-464 -488 0
-464 -489 0
-464 -490 0
-464 -491 0
-464 -492 0
-464 -493 0
-464 -494 0
-464 -495 0
-464 -496 0
-464 -497 0
-464 -498 0
-464 -499 0
-464 -500 0
-464 -501 0
-464 -502 0
-464 -503 0
-464 -504 0
-464 -505 0
-464 -506 0
-464 -507 0
-464 -508 0
-464 -509 0
-464 -510 0
-464 -511 0
-464 -512 0
-464 -513 0
-464 -514 0
-464 -515 0
-464 -516 0
-464 -517 0
-464 -518 0
-464 -519 0
-464 -520 0
-464 -521 0
-464 -522 0
-464 -523 0
-464 -524 0
-464 -525 0
-464 -526 0
-464 -527 0
-464 -528 0
-464 -529 0
-464 -530 0
-464 -531 0
-464 -532 0
-464 -533 0
-464 -534 0
-464 -535 0
-464 -536 0
-464 -537 0
-464 -538 0
-464 -539 0
-464 -540 0
-464 -541 0
-464 -542 0
-464 -543 0
-464 -544 0
-464 -545 0
-464 -546 0
-464 -547 0
-464 -548 0
-464 -549 0
-464 -550 0
-464 -551 0
-464 -552 0
-464 -553 0
-464 -554 0
-464 -555 0
-464 -556 0
-464 -557 0
-464 -558 0
-464 -559 0
-464 -560 0
-465 -466 0
-465 -467 0
-465 -468 0
-465 -469 0
-465 -470 0
-465 -471 0
-465 -472 0
-465 -473 0
-465 -474 0
-465 -475 0
-465 -476 0
-465 -477 0
-465 -478 0
-465 -479 0
-465 -480 0
-465 -481 0
-465 -482 0
-465 -483 0
-465 -484 0
-465 -485 0
-465 -486 0
-465 -487 0
-465 -488 0
-465 -489 0
-465 -490 0
-465 -491 0
-465 -492 0
-465 -493 0
-465 -494 0
-465 -495 0
-465 -496 0
-465 -497 0
-465 -498 0
-465 -499 0
-465 -500 0
-465 -501 0
-465 -502 0
-465 -503 0
-465 -504 0
-465 -505 0
-465 -506 0
-465 -507 0
-465 -508 0
-465 -509 0
-465 -510 0
-465 -511 0
-465 -512 0
-465 -513 0
-465 -514 0
-465 -515 0
-465 -516 0
-465 -517 0
-465 -518 0
-465 -519 0
-465 -520 0
-465 -521 0
-465 -522 0
-465 -523 0
-465 -524 0
-465 -525 0
-465 -526 0
-465 -527 0
-465 -528 0
-465 -529 0
-465 -530 0
-465 -531 0
-465 -532 0
-465 -533 0
-465 -534 0
-465 -535 0
-465 -536 0
-465 -537 0
-465 -538 0
-465 -539 0
-465 -540 0
-465 -541 0
-465 -542 0
-465 -543 0
-465 -544 0
-465 -545 0
-465 -546 0
-465 -547 0
-465 -548 0
-465 -549 0
-465 -550 0
-465 -551 0
-465 -552 0
-465 -553 0
-465 -554 0
-465 -555 0
-465 -556 0
-465 -557 0
-465 -558 0
-465 -559 0
-465 -560 0
-466 -467 0
-466 -468 0
-466 -469 0
-466 -470 0
-466 -471 0
-466 -472 0
-466 -473 0
-466 -474 0
-466 -475 0
-466 -476 0
-466 -477 0
-466 -478 0
-466 -479 0
-466 -480 0
-466 -481 0
-466 -482 0
-466 -483 0
-466 -484 0
-466 -485 0
-466 -486 0
-466 -487 0
-466 -488 0
-466 -489 0
-466 -490 0
-466 -491 0
-466 -492 0
-466 -493 0
-466 -494 0
-466 -495 0
-466 -496 0
-466 -497 0
-466 -498 0
-466 -499 0
-466 -500 0
-466 -501 0
-466 -502 0
-466 -503 0
-466 -504 0
-466 -505 0
-466 -506 0
-466 -507 0
-466 -508 0
-466 -509 0
-466 -510 0
-466 -511 0
-466 -512 0
-466 -513 0
-466 -514 0
-466 -515 0
-466 -516 0
-466 -517 0
-466 -518 0
-466 -519 0
-466 -520 0
-466 -521 0
-466 -522 0
-466 -523 0
-466 -524 0
-466 -525 0
-466 -526 0
-466 -527 0
-466 -528 0
-466 -529 0
-466 -530 0
-466 -531 0
-466 -532 0
-466 -533 0
-466 -534 0
-466 -535 0
-466 -536 0
-466 -537 0
-466 -538 0
-466 -539 0
-466 -540 0
-466 -541 0
-466 -542 0
-466 -543 0
-466 -544 0
-466 -545 0
-466 -546 0
-466 -547 0
-466 -548 0
-466 -549 0
-466 -550 0
-466 -551 0
-466 -552 0
-466 -553 0
-466 -554 0
-466 -555 0
-466 -556 0
-466 -557 0
-466 -558 0
-466 -559 0
-466 -560 0
-467 -468 0
-467 -469 0
-467 -470 0
-467 -471 0
-467 -472 0
-467 -473 0
-467 -474 0
-467 -475 0
-467 -476 0
-467 -477 0
-467 -478 0
-467 -479 0
-467 -480 0
-467 -481 0
-467 -482 0
-467 -483 0
-467 -484 0
-467 -485 0
-467 -486 0
-467 -487 0
-467 -488 0
-467 -489 0
-467 -490 0
-467 -491 0
-467 -492 0
-467 -493 0
-467 -494 0
-467 -495 0
-467 -496 0
-467 -497 0
-467 -498 0
-467 -499 0
-467 -500 0
-467 -501 0
-467 -502 0
-467 -503 0
-467 -504 0
-467 -505 0
-467 -506 0
-467 -507 0
-467 -508 0
-467 -509 0
-467 -510 0
-467 -511 0
-467 -512 0
-467 -513 0
-467 -514 0
-467 -515 0
-467 -516 0
-467 -517 0
-467 -518 0
-467 -519 0
-467 -520 0
-467 -521 0
-467 -522 0
-467 -523 0
-467 -524 0
-467 -525 0
-467 -526 0
-467 -527 0
-467 -528 0
-467 -529 0
-467 -530 0
-467 -531 0
-467 -532 0
-467 -533 0
-467 -534 0
-467 -535 0
-467 -536 0
-467 -537 0
-467 -538 0
-467 -539 0
-467 -540 0
-467 -541 0
-467 -542 0
-467 -543 0
-467 -544 0
-467 -545 0
-467 -546 0
-467 -547 0
-467 -548 0
-467 -549 0
-467 -550 0
-467 -551 0
-467 -552 0
-467 -553 0
-467 -554 0
-467 -555 0
-467 -556 0
-467 -557 0
-467 -558 0
-467 -559 0
-467 -560 0
-468 -469 0
-468 -470 0
-468 -471 0
-468 -472 0
-468 -473 0
-468 -474 0
-468 -475 0
-468 -476 0
-468 -477 0
-468 -478 0
-468 -479 0
-468 -480 0
-468 -481 0
-468 -482 0
-468 -483 0
-468 -484 0
-468 -485 0
-468 -486 0
-468 -487 0
-468 -488 0
-468 -489 0
-468 -490 0
-468 -491 0
-468 -492 0
-468 -493 0
-468 -494 0
-468 -495 0
-468 -496 0
-468 -497 0
-468 -498 0
-468 -499 0
-468 -500 0
-468 -501 0
-468 -502 0
-468 -503 0
-468 -504 0
-468 -505 0
-468 -506 0
-468 -507 0
-468 -508 0
-468 -509 0
-468 -510 0
-468 -511 0
-468 -512 0
-468 -513 0
-468 -514 0
-468 -515 0
-468 -516 0
-468 -517 0
-468 -518 0
-468 -519 0
-468 -520 0
-468 -521 0
-468 -522 0
-468 -523 0
-468 -524 0
-468 -525 0
-468 -526 0
-468 -527 0
-468 -528 0
-468 -529 0
-468 -530 0
-468 -531 0
-468 -532 0
-468 -533 0
-468 -534 0
-468 -535 0
-468 -536 0
-468 -537 0
-468 -538 0
-468 -539 0
-468 -540 0
-468 -541 0
-468 -542 0
-468 -543 0
-468 -544 0
-468 -545 0
-468 -546 0
-468 -547 0
-468 -548 0
-468 -549 0
-468 -550 0
-468 -551 0
-468 -552 0
-468 -553 0
-468 -554 0
-468 -555 0
-468 -556 0
-468 -557 0
-468 -558 0
-468 -559 0
-468 -560 0
-469 -470 0
-469 -471 0
-469 -472 0
-469 -473 0
-469 -474 0
-469 -475 0
-469 -476 0
-469 -477 0
-469 -478 0
-469 -479 0
-469 -480 0
-469 -481 0
-469 -482 0
-469 -483 0
-469 -484 0
-469 -485 0
-469 -486 0
-469 -487 0
-469 -488 0
-469 -489 0
-469 -490 0
-469 -491 0
-469 -492 0
-469 -493 0
-469 -494 0
-469 -495 0
-469 -496 0
-469 -497 0
-469 -498 0
-469 -499 0
-469 -500 0
-469 -501 0
-469 -502 0
-469 -503 0
-469 -504 0
-469 -505 0
-469 -506 0
-469 -507 0
-469 -508 0
-469 -509 0
-469 -510 0
-469 -511 0
-469 -512 0
-469 -513 0
-469 -514 0
-469 -515 0
-469 -516 0
-469 -517 0
-469 -518 0
-469 -519 0
-469 -520 0
-469 -521 0
-469 -522 0
-469 -523 0
-469 -524 0
-469 -525 0
-469 -526 0
-469 -527 0
-469 -528 0
-469 -529 0
-469 -530 0
-469 -531 0
-469 -532 0
-469 -533 0
-469 -534 0
-469 -535 0
-469 -536 0
-469 -537 0
-469 -538 0
-469 -539 0
-469 -540 0
-469 -541 0
-469 -542 0
-469 -543 0
-469 -544 0
-469 -545 0
-469 -546 0
-469 -547 0
-469 -548 0
-469 -549 0
-469 -550 0
-469 -551 0
-469 -552 0
-469 -553 0
-469 -554 0
-469 -555 0
-469 -556 0
-469 -557 0
-469 -558 0
-469 -559 0
-469 -560 0
-470 -471 0
-470 -472 0
-470 -473 0
-470 -474 0
-470 -475 0
-470 -476 0
-470 -477 0
-470 -478 0
-470 -479 0
-470 -480 0
-470 -481 0
-470 -482 0
-470 -483 0
-470 -484 0
-470 -485 0
-470 -486 0
-470 -487 0
-470 -488 0
-470 -489 0
-470 -490 0
-470 -491 0
-470 -492 0
-470 -493 0
-470 -494 0
-470 -495 0
-470 -496 0
-470 -497 0
-470 -498 0
-470 -499 0
-470 -500 0
-470 -501 0
-470 -502 0
-470 -503 0
-470 -504 0
-470 -505 0
-470 -506 0
-470 -507 0
-470 -508 0
-470 -509 0
-470 -510 0
-470 -511 0
-470 -512 0
-470 -513 0
-470 -514 0
-470 -515 0
-470 -516 0
-470 -517 0
-470 -518 0
-470 -519 0
-470 -520 0
-470 -521 0
-470 -522 0
-470 -523 0
-470 -524 0
-470 -525 0
-470 -526 0
-470 -527 0
-470 -528 0
-470 -529 0
-470 -530 0
-470 -531 0
-470 -532 0
-470 -533 0
-470 -534 0
-470 -535 0
-470 -536 0
-470 -537 0
-470 -538 0
-470 -539 0
-470 -540 0
-470 -541 0
-470 -542 0
-470 -543 0
-470 -544 0
-470 -545 0
-470 -546 0
-470 -547 0
-470 -548 0
-470 -549 0
-470 -550 0
-470 -551 0
-470 -552 0
-470 -553 0
-470 -554 0
-470 -555 0
-470 -556 0
-470 -557 0
-470 -558 0
-470 -559 0
-470 -560 0
-471 -472 0
-471 -473 0
-471 -474 0
-471 -475 0
-471 -476 0
-471 -477 0
-471 -478 0
-471 -479 0
-471 -480 0
-471 -481 0
-471 -482 0
-471 -483 0
-471 -484 0
-471 -485 0
-471 -486 0
-471 -487 0
-471 -488 0
-471 -489 0
-471 -490 0
-471 -491 0
-471 -492 0
-471 -493 0
-471 -494 0
-471 -495 0
-471 -496 0
-471 -497 0
-471 -498 0
-471 -499 0
-471 -500 0
-471 -501 0
-471 -502 0
-471 -503 0
-471 -504 0
-471 -505 0
-471 -506 0
-471 -507 0
-471 -508 0
-471 -509 0
-471 -510 0
-471 -511 0
-471 -512 0
-471 -513 0
-471 -514 0
-471 -515 0
-471 -516 0
-471 -517 0
-471 -518 0
-471 -519 0
-471 -520 0
-471 -521 0
-471 -522 0
-471 -523 0
-471 -524 0
-471 -525 0
-471 -526 0
-471 -527 0
-471 -528 0
-471 -529 0
-471 -530 0
-471 -531 0
-471 -532 0
-471 -533 0
-471 -534 0
-471 -535 0
-471 -536 0
-471 -537 0
-471 -538 0
-471 -539 0
-471 -540 0
-471 -541 0
-471 -542 0
-471 -543 0
-471 -544 0
-471 -545 0
-471 -546 0
-471 -547 0
-471 -548 0
-471 -549 0
-471 -550 0
-471 -551 0
-471 -552 0
-471 -553 0
-471 -554 0
-471 -555 0
-471 -556 0
-471 -557 0
-471 -558 0
-471 -559 0
-471 -560 0
-472 -473 0
-472 -474 0
-472 -475 0
-472 -476 0
-472 -477 0
-472 -478 0
-472 -479 0
-472 -480 0
-472 -481 0
-472 -482 0
-472 -483 0
-472 -484 0
-472 -485 0
-472 -486 0
-472 -487 0
-472 -488 0
-472 -489 0
-472 -490 0
-472 -491 0
-472 -492 0
-472 -493 0
-472 -494 0
-472 -495 0
-472 -496 0
-472 -497 0
-472 -498 0
-472 -499 0
-472 -500 0
-472 -501 0
-472 -502 0
-472 -503 0
-472 -504 0
-472 -505 0
-472 -506 0
-472 -507 0
-472 -508 0
-472 -509 0
-472 -510 0
-472 -511 0
-472 -512 0
-472 -513 0
-472 -514 0
-472 -515 0
-472 -516 0
-472 -517 0
-472 -518 0
-472 -519 0
-472 -520 0
-472 -521 0
-472 -522 0
-472 -523 0
-472 -524 0
-472 -525 0
-472 -526 0
-472 -527 0
-472 -528 0
-472 -529 0
-472 -530 0
-472 -531 0
-472 -532 0
-472 -533 0
-472 -534 0
-472 -535 0
-472 -536 0
-472 -537 0
-472 -538 0
-472 -539 0
-472 -540 0
-472 -541 0
-472 -542 0
-472 -543 0
-472 -544 0
-472 -545 0
-472 -546 0
-472 -547 0
-472 -548 0
-472 -549 0
-472 -550 0
-472 -551 0
-472 -552 0
-472 -553 0
-472 -554 0
-472 -555 0
-472 -556 0
-472 -557 0
-472 -558 0
-472 -559 0
-472 -560 0
-473 -474 0
-473 -475 0
-473 -476 0
-473 -477 0
-473 -478 0
-473 -479 0
-473 -480 0
-473 -481 0
-473 -482 0
-473 -483 0
-473 -484 0
-473 -485 0
-473 -486 0
-473 -487 0
-473 -488 0
-473 -489 0
-473 -490 0
-473 -491 0
-473 -492 0
-473 -493 0
-473 -494 0
-473 -495 0
-473 -496 0
-473 -497 0
-473 -498 0
-473 -499 0
-473 -500 0
-473 -501 0
-473 -502 0
-473 -503 0
-473 -504 0
-473 -505 0
-473 -506 0
-473 -507 0
-473 -508 0
-473 -509 0
-473 -510 0
-473 -511 0
-473 -512 0
-473 -513 0
-473 -514 0
-473 -515 0
-473 -516 0
-473 -517 0
-473 -518 0
-473 -519 0
-473 -520 0
-473 -521 0
-473 -522 0
-473 -523 0
-473 -524 0
-473 -525 0
-473 -526 0
-473 -527 0
-473 -528 0
-473 -529 0
-473 -530 0
-473 -531 0
-473 -532 0
-473 -533 0
-473 -534 0
-473 -535 0
-473 -536 0
-473 -537 0
-473 -538 0
-473 -539 0
-473 -540 0
-473 -541 0
-473 -542 0
-473 -543 0
-473 -544 0
-473 -545 0
-473 -546 0
-473 -547 0
-473 -548 0
-473 -549 0
-473 -550 0
-473 -551 0
-473 -552 0
-473 -553 0
-473 -554 0
-473 -555 0
-473 -556 0
-473 -557 0
-473 -558 0
-473 -559 0
-473 -560 0
-474 -475 0
-474 -476 0
-474 -477 0
-474 -478 0
-474 -479 0
-474 -480 0
-474 -481 0
-474 -482 0
-474 -483 0
-474 -484 0
-474 -485 0
-474 -486 0
-474 -487 0
-474 -488 0
-474 -489 0
-474 -490 0
-474 -491 0
-474 -492 0
-474 -493 0
-474 -494 0
-474 -495 0
-474 -496 0
-474 -497 0
-474 -498 0
-474 -499 0
-474 -500 0
-474 -501 0
-474 -502 0
-474 -503 0
-474 -504 0
-474 -505 0
-474 -506 0
-474 -507 0
-474 -508 0
-474 -509 0
-474 -510 0
-474 -511 0
-474 -512 0
-474 -513 0
-474 -514 0
-474 -515 0
-474 -516 0
-474 -517 0
-474 -518 0
-474 -519 0
-474 -520 0
-474 -521 0
-474 -522 0
-474 -523 0
-474 -524 0
-474 -525 0
-474 -526 0
-474 -527 0
-474 -528 0
-474 -529 0
-474 -530 0
-474 -531 0
-474 -532 0
-474 -533 0
-474 -534 0
-474 -535 0
-474 -536 0
-474 -537 0
-474 -538 0
-474 -539 0
-474 -540 0
-474 -541 0
-474 -542 0
-474 -543 0
-474 -544 0
-474 -545 0
-474 -546 0
-474 -547 0
-474 -548 0
-474 -549 0
-474 -550 0
-474 -551 0
-474 -552 0
-474 -553 0
-474 -554 0
-474 -555 0
-474 -556 0
-474 -557 0
-474 -558 0
-474 -559 0
-474 -560 0
-475 -476 0
-475 -477 0
-475 -478 0
-475 -479 0
-475 -480 0
-475 -481 0
-475 -482 0
-475 -483 0
-475 -484 0
-475 -485 0
-475 -486 0
-475 -487 0
-475 -488 0
-475 -489 0
-475 -490 0
-475 -491 0
-475 -492 0
-475 -493 0
-475 -494 0
-475 -495 0
-475 -496 0
-475 -497 0
-475 -498 0
-475 -499 0
-475 -500 0
-475 -501 0
-475 -502 0
-475 -503 0
-475 -504 0
-475 -505 0
-475 -506 0
-475 -507 0
-475 -508 0
-475 -509 0
-475 -510 0
-475 -511 0
-475 -512 0
-475 -513 0
-475 -514 0
-475 -515 0
-475 -516 0
-475 -517 0
-475 -518 0
-475 -519 0
-475 -520 0
-475 -521 0
-475 -522 0
-475 -523 0
-475 -524 0
-475 -525 0
-475 -526 0
-475 -527 0
-475 -528 0
-475 -529 0
-475 -530 0
-475 -531 0
-475 -532 0
-475 -533 0
-475 -534 0
-475 -535 0
-475 -536 0
-475 -537 0
-475 -538 0
-475 -539 0
-475 -540 0
-475 -541 0
-475 -542 0
-475 -543 0
-475 -544 0
-475 -545 0
-475 -546 0
-475 -547 0
-475 -548 0
-475 -549 0
-475 -550 0
-475 -551 0
-475 -552 0
-475 -553 0
-475 -554 0
-475 -555 0
-475 -556 0
-475 -557 0
-475 -558 0
-475 -559 0
-475 -560 0
-476 -477 0
-476 -478 0
-476 -479 0
-476 -480 0
-476 -481 0
-476 -482 0
-476 -483 0
-476 -484 0
-476 -485 0
-476 -486 0
-476 -487 0
-476 -488 0
-476 -489 0
-476 -490 0
-476 -491 0
-476 -492 0
-476 -493 0
-476 -494 0
-476 -495 0
-476 -496 0
-476 -497 0
-476 -498 0
-476 -499 0
-476 -500 0
-476 -501 0
-476 -502 0
-476 -503 0
-476 -504 0
-476 -505 0
-476 -506 0
-476 -507 0
-476 -508 0
-476 -509 0
-476 -510 0
-476 -511 0
-476 -512 0
-476 -513 0
-476 -514 0
-476 -515 0
-476 -516 0
-476 -517 0
-476 -518 0
-476 -519 0
-476 -520 0
-476 -521 0
-476 -522 0
-476 -523 0
-476 -524 0
-476 -525 0
-476 -526 0
-476 -527 0
-476 -528 0
-476 -529 0
-476 -530 0
-476 -531 0
-476 -532 0
-476 -533 0
-476 -534 0
-476 -535 0
-476 -536 0
-476 -537 0
-476 -538 0
-476 -539 0
-476 -540 0
-476 -541 0
-476 -542 0
-476 -543 0
-476 -544 0
-476 -545 0
-476 -546 0
-476 -547 0
-476 -548 0
-476 -549 0
-476 -550 0
-476 -551 0
-476 -552 0
-476 -553 0
-476 -554 0
-476 -555 0
-476 -556 0
-476 -557 0
-476 -558 0
-476 -559 0
-476 -560 0
-477 -478 0
-477 -479 0
-477 -480 0
-477 -481 0
-477 -482 0
-477 -483 0
-477 -484 0
-477 -485 0
-477 -486 0
-477 -487 0
-477 -488 0
-477 -489 0
-477 -490 0
-477 -491 0
-477 -492 0
-477 -493 0
-477 -494 0
-477 -495 0
-477 -496 0
-477 -497 0
-477 -498 0
-477 -499 0
-477 -500 0
-477 -501 0
-477 -502 0
-477 -503 0
-477 -504 0
-477 -505 0
-477 -506 0
-477 -507 0
-477 -508 0
-477 -509 0
-477 -510 0
-477 -511 0
-477 -512 0
-477 -513 0
-477 -514 0
-477 -515 0
-477 -516 0
-477 -517 0
-477 -518 0
-477 -519 0
-477 -520 0
-477 -521 0
-477 -522 0
-477 -523 0
-477 -524 0
-477 -525 0
-477 -526 0
-477 -527 0
-477 -528 0
-477 -529 0
-477 -530 0
-477 -531 0
-477 -532 0
-477 -533 0
-477 -534 0
-477 -535 0
-477 -536 0
-477 -537 0
-477 -538 0
-477 -539 0
-477 -540 0
-477 -541 0
-477 -542 0
-477 -543 0
-477 -544 0
-477 -545 0
-477 -546 0
-477 -547 0
-477 -548 0
-477 -549 0
-477 -550 0
-477 -551 0
-477 -552 0
-477 -553 0
-477 -554 0
-477 -555 0
-477 -556 0
-477 -557 0
-477 -558 0
-477 -559 0
-477 -560 0
-478 -479 0
-478 -480 0
-478 -481 0
-478 -482 0
-478 -483 0
-478 -484 0
-478 -485 0
-478 -486 0
-478 -487 0
-478 -488 0
-478 -489 0
-478 -490 0
-478 -491 0
-478 -492 0
-478 -493 0
-478 -494 0
-478 -495 0
-478 -496 0
-478 -497 0
-478 -498 0
-478 -499 0
-478 -500 0
-478 -501 0
-478 -502 0
-478 -503 0
-478 -504 0
-478 -505 0
-478 -506 0
-478 -507 0
-478 -508 0
-478 -509 0
-478 -510 0
-478 -511 0
-478 -512 0
-478 -513 0
-478 -514 0
-478 -515 0
-478 -516 0
-478 -517 0
-478 -518 0
-478 -519 0
-478 -520 0
-478 -521 0
-478 -522 0
-478 -523 0
-478 -524 0
-478 -525 0
-478 -526 0
-478 -527 0
-478 -528 0
-478 -529 0
-478 -530 0
-478 -531 0
-478 -532 0
-478 -533 0
-478 -534 0
-478 -535 0
-478 -536 0
-478 -537 0
-478 -538 0
-478 -539 0
-478 -540 0
-478 -541 0
-478 -542 0
-478 -543 0
-478 -544 0
-478 -545 0
-478 -546 0
-478 -547 0
-478 -548 0
-478 -549 0
-478 -550 0
-478 -551 0
-478 -552 0
-478 -553 0
-478 -554 0
-478 -555 0
-478 -556 0
-478 -557 0
-478 -558 0
-478 -559 0
-478 -560 0
-479 -480 0
-479 -481 0
-479 -482 0
-479 -483 0
-479 -484 0
-479 -485 0
-479 -486 0
-479 -487 0
-479 -488 0
-479 -489 0
-479 -490 0
-479 -491 0
-479 -492 0
-479 -493 0
-479 -494 0
-479 -495 0
-479 -496 0
-479 -497 0
-479 -498 0
-479 -499 0
-479 -500 0
-479 -501 0
-479 -502 0
-479 -503 0
-479 -504 0
-479 -505 0
-479 -506 0
-479 -507 0
-479 -508 0
-479 -509 0
-479 -510 0
-479 -511 0
-479 -512 0
-479 -513 0
-479 -514 0
-479 -515 0
-479 -516 0
-479 -517 0
-479 -518 0
-479 -519 0
-479 -520 0
-479 -521 0
-479 -522 0
-479 -523 0
-479 -524 0
-479 -525 0
-479 -526 0
-479 -527 0
-479 -528 0
-479 -529 0
-479 -530 0
-479 -531 0
-479 -532 0
-479 -533 0
-479 -534 0
-479 -535 0
-479 -536 0
-479 -537 0
-479 -538 0
-479 -539 0
-479 -540 0
-479 -541 0
-479 -542 0
-479 -543 0
-479 -544 0
-479 -545 0
-479 -546 0
-479 -547 0
-479 -548 0
-479 -549 0
-479 -550 0
-479 -551 0
-479 -552 0
-479 -553 0
-479 -554 0
-479 -555 0
-479 -556 0
-479 -557 0
-479 -558 0
-479 -559 0
-479 -560 0
-480 -481 0
-480 -482 0
-480 -483 0
-480 -484 0
-480 -485 0
-480 -486 0
-480 -487 0
-480 -488 0
-480 -489 0
-480 -490 0
-480 -491 0
-480 -492 0
-480 -493 0
-480 -494 0
-480 -495 0
-480 -496 0
-480 -497 0
-480 -498 0
-480 -499 0
-480 -500 0
-480 -501 0
-480 -502 0
-480 -503 0
-480 -504 0
-480 -505 0
-480 -506 0
-480 -507 0
-480 -508 0
-480 -509 0
-480 -510 0
-480 -511 0
-480 -512 0
-480 -513 0
-480 -514 0
-480 -515 0
-480 -516 0
-480 -517 0
-480 -518 0
-480 -519 0
-480 -520 0
-480 -521 0
-480 -522 0
-480 -523 0
-480 -524 0
-480 -525 0
-480 -526 0
-480 -527 0
-480 -528 0
-480 -529 0
-480 -530 0
-480 -531 0
-480 -532 0
-480 -533 0
-480 -534 0
-480 -535 0
-480 -536 0
-480 -537 0
-480 -538 0
-480 -539 0
-480 -540 0
-480 -541 0
-480 -542 0
-480 -543 0
-480 -544 0
-480 -545 0
-480 -546 0
-480 -547 0
-480 -548 0
-480 -549 0
-480 -550 0
-480 -551 0
-480 -552 0
-480 -553 0
-480 -554 0
-480 -555 0
-480 -556 0
-480 -557 0
-480 -558 0
-480 -559 0
-480 -560 0
-481 -482 0
-481 -483 0
-481 -484 0
-481 -485 0
-481 -486 0
-481 -487 0
-481 -488 0
-481 -489 0
-481 -490 0
-481 -491 0
-481 -492 0
-481 -493 0
-481 -494 0
-481 -495 0
-481 -496 0
-481 -497 0
-481 -498 0
-481 -499 0
-481 -500 0
-481 -501 0
-481 -502 0
-481 -503 0
-481 -504 0
-481 -505 0
-481 -506 0
-481 -507 0
-481 -508 0
-481 -509 0
-481 -510 0
-481 -511 0
-481 -512 0
-481 -513 0
-481 -514 0
-481 -515 0
-481 -516 0
-481 -517 0
-481 -518 0
-481 -519 0
-481 -520 0
-481 -521 0
-481 -522 0
-481 -523 0
-481 -524 0
-481 -525 0
-481 -526 0
-481 -527 0
-481 -528 0
-481 -529 0
-481 -530 0
-481 -531 0
-481 -532 0
-481 -533 0
-481 -534 0
-481 -535 0
-481 -536 0
-481 -537 0
-481 -538 0
-481 -539 0
-481 -540 0
-481 -541 0
-481 -542 0
-481 -543 0
-481 -544 0
-481 -545 0
-481 -546 0
-481 -547 0
-481 -548 0
-481 -549 0
-481 -550 0
-481 -551 0
-481 -552 0
-481 -553 0
-481 -554 0
-481 -555 0
-481 -556 0
-481 -557 0
-481 -558 0
-481 -559 0
-481 -560 0
-482 -483 0
-482 -484 0
-482 -485 0
-482 -486 0
-482 -487 0
-482 -488 0
-482 -489 0
-482 -490 0
-482 -491 0
-482 -492 0
-482 -493 0
-482 -494 0
-482 -495 0
-482 -496 0
-482 -497 0
-482 -498 0
-482 -499 0
-482 -500 0
-482 -501 0
-482 -502 0
-482 -503 0
-482 -504 0
-482 -505 0
-482 -506 0
-482 -507 0
-482 -508 0
-482 -509 0
-482 -510 0
-482 -511 0
-482 -512 0
-482 -513 0
-482 -514 0
-482 -515 0
-482 -516 0
-482 -517 0
-482 -518 0
-482 -519 0
-482 -520 0
-482 -521 0
-482 -522 0
-482 -523 0
-482 -524 0
-482 -525 0
-482 -526 0
-482 -527 0
-482 -528 0
-482 -529 0
-482 -530 0
-482 -531 0
-482 -532 0
-482 -533 0
-482 -534 0
-482 -535 0
-482 -536 0
-482 -537 0
-482 -538 0
-482 -539 0
-482 -540 0
-482 -541 0
-482 -542 0
-482 -543 0
-482 -544 0
-482 -545 0
-482 -546 0
-482 -547 0
-482 -548 0
-482 -549 0
-482 -550 0
-482 -551 0
-482 -552 0
-482 -553 0
-482 -554 0
-482 -555 0
-482 -556 0
-482 -557 0
-482 -558 0
-482 -559 0
-482 -560 0
-483 -484 0
-483 -485 0
-483 -486 0
-483 -487 0
-483 -488 0
-483 -489 0
-483 -490 0
-483 -491 0
-483 -492 0
-483 -493 0
-483 -494 0
-483 -495 0
-483 -496 0
-483 -497 0
-483 -498 0
-483 -499 0
-483 -500 0
-483 -501 0
-483 -502 0
-483 -503 0
-483 -504 0
-483 -505 0
-483 -506 0
-483 -507 0
-483 -508 0
-483 -509 0
-483 -510 0
-483 -511 0
-483 -512 0
-483 -513 0
-483 -514 0
-483 -515 0
-483 -516 0
-483 -517 0
-483 -518 0
-483 -519 0
-483 -520 0
-483 -521 0
-483 -522 0
-483 -523 0
-483 -524 0
-483 -525 0
-483 -526 0
-483 -527 0
-483 -528 0
-483 -529 0
-483 -530 0
-483 -531 0
-483 -532 0
-483 -533 0
-483 -534 0
-483 -535 0
-483 -536 0
-483 -537 0
-483 -538 0
-483 -539 0
-483 -540 0
-483 -541 0
-483 -542 0
-483 -543 0
-483 -544 0
-483 -545 0
-483 -546 0
-483 -547 0
-483 -548 0
-483 -549 0
-483 -550 0
-483 -551 0
-483 -552 0
-483 -553 0
-483 -554 0
-483 -555 0
-483 -556 0
-483 -557 0
-483 -558 0
-483 -559 0
-483 -560 0
-484 -485 0
-484 -486 0
-484 -487 0
-484 -488 0
-484 -489 0
-484 -490 0
-484 -491 0
-484 -492 0
-484 -493 0
-484 -494 0
-484 -495 0
-484 -496 0
-484 -497 0
-484 -498 0
-484 -499 0
-484 -500 0
-484 -501 0
-484 -502 0
-484 -503 0
-484 -504 0
-484 -505 0
-484 -506 0
-484 -507 0
-484 -508 0
-484 -509 0
-484 -510 0
-484 -511 0
-484 -512 0
-484 -513 0
-484 -514 0
-484 -515 0
-484 -516 0
-484 -517 0
-484 -518 0
-484 -519 0
-484 -520 0
-484 -521 0
-484 -522 0
-484 -523 0
-484 -524 0
-484 -525 0
-484 -526 0
-484 -527 0
-484 -528 0
-484 -529 0
-484 -530 0
-484 -531 0
-484 -532 0
-484 -533 0
-484 -534 0
-484 -535 0
-484 -536 0
-484 -537 0
-484 -538 0
-484 -539 0
-484 -540 0
-484 -541 0
-484 -542 0
-484 -543 0
-484 -544 0
-484 -545 0
-484 -546 0
-484 -547 0
-484 -548 0
-484 -549 0
-484 -550 0
-484 -551 0
-484 -552 0
-484 -553 0
-484 -554 0
-484 -555 0
-484 -556 0
-484 -557 0
-484 -558 0
-484 -559 0
-484 -560 0
-485 -486 0
-485 -487 0
-485 -488 0
-485 -489 0
-485 -490 0
-485 -491 0
-485 -492 0
-485 -493 0
-485 -494 0
-485 -495 0
-485 -496 0
-485 -497 0
-485 -498 0
-485 -499 0
-485 -500 0
-485 -501 0
-485 -502 0
-485 -503 0
-485 -504 0
-485 -505 0
-485 -506 0
-485 -507 0
-485 -508 0
-485 -509 0
-485 -510 0
-485 -511 0
-485 -512 0
-485 -513 0
-485 -514 0
-485 -515 0
-485 -516 0
-485 -517 0
-485 -518 0
-485 -519 0
-485 -520 0
-485 -521 0
-485 -522 0
-485 -523 0
-485 -524 0
-485 -525 0
-485 -526 0
-485 -527 0
-485 -528 0
-485 -529 0
-485 -530 0
-485 -531 0
-485 -532 0
-485 -533 0
-485 -534 0
-485 -535 0
-485 -536 0
-485 -537 0
-485 -538 0
-485 -539 0
-485 -540 0
-485 -541 0
-485 -542 0
-485 -543 0
-485 -544 0
-485 -545 0
-485 -546 0
-485 -547 0
-485 -548 0
-485 -549 0
-485 -550 0
-485 -551 0
-485 -552 0
-485 -553 0
-485 -554 0
-485 -555 0
-485 -556 0
-485 -557 0
-485 -558 0
-485 -559 0
-485 -560 0
-486 -487 0
-486 -488 0
-486 -489 0
-486 -490 0
-486 -491 0
-486 -492 0
-486 -493 0
-486 -494 0
-486 -495 0
-486 -496 0
-486 -497 0
-486 -498 0
-486 -499 0
-486 -500 0
-486 -501 0
-486 -502 0
-486 -503 0
-486 -504 0
-486 -505 0
-486 -506 0
-486 -507 0
-486 -508 0
-486 -509 0
-486 -510 0
-486 -511 0
-486 -512 0
-486 -513 0
-486 -514 0
-486 -515 0
-486 -516 0
-486 -517 0
-486 -518 0
-486 -519 0
-486 -520 0
-486 -521 0
-486 -522 0
-486 -523 0
-486 -524 0
-486 -525 0
-486 -526 0
-486 -527 0
-486 -528 0
-486 -529 0
-486 -530 0
-486 -531 0
-486 -532 0
-486 -533 0
-486 -534 0
-486 -535 0
-486 -536 0
-486 -537 0
-486 -538 0
-486 -539 0
-486 -540 0
-486 -541 0
-486 -542 0
-486 -543 0
-486 -544 0
-486 -545 0
-486 -546 0
-486 -547 0
-486 -548 0
-486 -549 0
-486 -550 0
-486 -551 0
-486 -552 0
-486 -553 0
-486 -554 0
-486 -555 0
-486 -556 0
-486 -557 0
-486 -558 0
-486 -559 0
-486 -560 0
-487 -488 0
-487 -489 0
-487 -490 0
-487 -491 0
-487 -492 0
-487 -493 0
-487 -494 0
-487 -495 0
-487 -496 0
-487 -497 0
-487 -498 0
-487 -499 0
-487 -500 0
-487 -501 0
-487 -502 0
-487 -503 0
-487 -504 0
-487 -505 0
-487 -506 0
-487 -507 0
-487 -508 0
-487 -509 0
-487 -510 0
-487 -511 0
-487 -512 0
-487 -513 0
-487 -514 0
-487 -515 0
-487 -516 0
-487 -517 0
-487 -518 0
-487 -519 0
-487 -520 0
-487 -521 0
-487 -522 0
-487 -523 0
-487 -524 0
-487 -525 0
-487 -526 0
-487 -527 0
-487 -528 0
-487 -529 0
-487 -530 0
-487 -531 0
-487 -532 0
-487 -533 0
-487 -534 0
-487 -535 0
-487 -536 0
-487 -537 0
-487 -538 0
-487 -539 0
-487 -540 0
-487 -541 0
-487 -542 0
-487 -543 0
-487 -544 0
-487 -545 0
-487 -546 0
-487 -547 0
-487 -548 0
-487 -549 0
-487 -550 0
-487 -551 0
-487 -552 0
-487 -553 0
-487 -554 0
-487 -555 0
-487 -556 0
-487 -557 0
-487 -558 0
-487 -559 0
-487 -560 0
-488 -489 0
-488 -490 0
-488 -491 0
-488 -492 0
-488 -493 0
-488 -494 0
-488 -495 0
-488 -496 0
-488 -497 0
-488 -498 0
-488 -499 0
-488 -500 0
-488 -501 0
-488 -502 0
-488 -503 0
-488 -504 0
-488 -505 0
-488 -506 0
-488 -507 0
-488 -508 0
-488 -509 0
-488 -510 0
-488 -511 0
-488 -512 0
-488 -513 0
-488 -514 0
-488 -515 0
-488 -516 0
-488 -517 0
-488 -518 0
-488 -519 0
-488 -520 0
-488 -521 0
-488 -522 0
-488 -523 0
-488 -524 0
-488 -525 0
-488 -526 0
-488 -527 0
-488 -528 0
-488 -529 0
-488 -530 0
-488 -531 0
-488 -532 0
-488 -533 0
-488 -534 0
-488 -535 0
-488 -536 0
-488 -537 0
-488 -538 0
-488 -539 0
-488 -540 0
-488 -541 0
-488 -542 0
-488 -543 0
-488 -544 0
-488 -545 0
-488 -546 0
-488 -547 0
-488 -548 0
-488 -549 0
-488 -550 0
-488 -551 0
-488 -552 0
-488 -553 0
-488 -554 0
-488 -555 0
-488 -556 0
-488 -557 0
-488 -558 0
-488 -559 0
-488 -560 0
-489 -490 0
-489 -491 0
-489 -492 0
-489 -493 0
-489 -494 0
-489 -495 0
-489 -496 0
-489 -497 0
-489 -498 0
-489 -499 0
-489 -500 0
-489 -501 0
-489 -502 0
-489 -503 0
-489 -504 0
-489 -505 0
-489 -506 0
-489 -507 0
-489 -508 0
-489 -509 0
-489 -510 0
-489 -511 0
-489 -512 0
-489 -513 0
-489 -514 0
-489 -515 0
-489 -516 0
-489 -517 0
-489 -518 0
-489 -519 0
-489 -520 0
-489 -521 0
-489 -522 0
-489 -523 0
-489 -524 0
-489 -525 0
-489 -526 0
-489 -527 0
-489 -528 0
-489 -529 0
-489 -530 0
-489 -531 0
-489 -532 0
-489 -533 0
-489 -534 0
-489 -535 0
-489 -536 0
-489 -537 0
-489 -538 0
-489 -539 0
-489 -540 0
-489 -541 0
-489 -542 0
-489 -543 0
-489 -544 0
-489 -545 0
-489 -546 0
-489 -547 0
-489 -548 0
-489 -549 0
-489 -550 0
-489 -551 0
-489 -552 0
-489 -553 0
-489 -554 0
-489 -555 0
-489 -556 0
-489 -557 0
-489 -558 0
-489 -559 0
-489 -560 0
-490 -491 0
-490 -492 0
-490 -493 0
-490 -494 0
-490 -495 0
-490 -496 0
-490 -497 0
-490 -498 0
-490 -499 0
-490 -500 0
-490 -501 0
-490 -502 0
-490 -503 0
-490 -504 0
-490 -505 0
-490 -506 0
-490 -507 0
-490 -508 0
-490 -509 0
-490 -510 0
-490 -511 0
-490 -512 0
-490 -513 0
-490 -514 0
-490 -515 0
-490 -516 0
-490 -517 0
-490 -518 0
-490 -519 0
-490 -520 0
-490 -521 0
-490 -522 0
-490 -523 0
-490 -524 0
-490 -525 0
-490 -526 0
-490 -527 0
-490 -528 0
-490 -529 0
-490 -530 0
-490 -531 0
-490 -532 0
-490 -533 0
-490 -534 0
-490 -535 0
-490 -536 0
-490 -537 0
-490 -538 0
-490 -539 0
-490 -540 0
-490 -541 0
-490 -542 0
-490 -543 0
-490 -544 0
-490 -545 0
-490 -546 0
-490 -547 0
-490 -548 0
-490 -549 0
-490 -550 0
-490 -551 0
-490 -552 0
-490 -553 0
-490 -554 0
-490 -555 0
-490 -556 0
-490 -557 0
-490 -558 0
-490 -559 0
-490 -560 0
-491 -492 0
-491 -493 0
-491 -494 0
-491 -495 0
-491 -496 0
-491 -497 0
-491 -498 0
-491 -499 0
-491 -500 0
-491 -501 0
-491 -502 0
-491 -503 0
-491 -504 0
-491 -505 0
-491 -506 0
-491 -507 0
-491 -508 0
-491 -509 0
-491 -510 0
-491 -511 0
-491 -512 0
-491 -513 0
-491 -514 0
-491 -515 0
-491 -516 0
-491 -517 0
-491 -518 0
-491 -519 0
-491 -520 0
-491 -521 0
-491 -522 0
-491 -523 0
-491 -524 0
-491 -525 0
-491 -526 0
-491 -527 0
-491 -528 0
-491 -529 0
-491 -530 0
-491 -531 0
-491 -532 0
-491 -533 0
-491 -534 0
-491 -535 0
-491 -536 0
-491 -537 0
-491 -538 0
-491 -539 0
-491 -540 0
-491 -541 0
-491 -542 0
-491 -543 0
-491 -544 0
-491 -545 0
-491 -546 0
-491 -547 0
-491 -548 0
-491 -549 0
-491 -550 0
-491 -551 0
-491 -552 0
-491 -553 0
-491 -554 0
-491 -555 0
-491 -556 0
-491 -557 0
-491 -558 0
-491 -559 0
-491 -560 0
-492 -493 0
-492 -494 0
-492 -495 0
-492 -496 0
-492 -497 0
-492 -498 0
-492 -499 0
-492 -500 0
-492 -501 0
-492 -502 0
-492 -503 0
-492 -504 0
-492 -505 0
-492 -506 0
-492 -507 0
-492 -508 0
-492 -509 0
-492 -510 0
-492 -511 0
-492 -512 0
-492 -513 0
-492 -514 0
-492 -515 0
-492 -516 0
-492 -517 0
-492 -518 0
-492 -519 0
-492 -520 0
-492 -521 0
-492 -522 0
-492 -523 0
-492 -524 0
-492 -525 0
-492 -526 0
-492 -527 0
-492 -528 0
-492 -529 0
-492 -530 0
-492 -531 0
-492 -532 0
-492 -533 0
-492 -534 0
-492 -535 0
-492 -536 0
-492 -537 0
-492 -538 0
-492 -539 0
-492 -540 0
-492 -541 0
-492 -542 0
-492 -543 0
-492 -544 0
-492 -545 0
-492 -546 0
-492 -547 0
-492 -548 0
-492 -549 0
-492 -550 0
-492 -551 0
-492 -552 0
-492 -553 0
-492 -554 0
-492 -555 0
-492 -556 0
-492 -557 0
-492 -558 0
-492 -559 0
-492 -560 0
-493 -494 0
-493 -495 0
-493 -496 0
-493 -497 0
-493 -498 0
-493 -499 0
-493 -500 0
-493 -501 0
-493 -502 0
-493 -503 0
-493 -504 0
-493 -505 0
-493 -506 0
-493 -507 0
-493 -508 0
-493 -509 0
-493 -510 0
-493 -511 0
-493 -512 0
-493 -513 0
-493 -514 0
-493 -515 0
-493 -516 0
-493 -517 0
-493 -518 0
-493 -519 0
-493 -520 0
-493 -521 0
-493 -522 0
-493 -523 0
-493 -524 0
-493 -525 0
-493 -526 0
-493 -527 0
-493 -528 0
-493 -529 0
-493 -530 0
-493 -531 0
-493 -532 0
-493 -533 0
-493 -534 0
-493 -535 0
-493 -536 0
-493 -537 0
-493 -538 0
-493 -539 0
-493 -540 0
-493 -541 0
-493 -542 0
-493 -543 0
-493 -544 0
-493 -545 0
-493 -546 0
-493 -547 0
-493 -548 0
-493 -549 0
-493 -550 0
-493 -551 0
-493 -552 0
-493 -553 0
-493 -554 0
-493 -555 0
-493 -556 0
-493 -557 0
-493 -558 0
-493 -559 0
-493 -560 0
-494 -495 0
-494 -496 0
-494 -497 0
-494 -498 0
-494 -499 0
-494 -500 0
-494 -501 0
-494 -502 0
-494 -503 0
-494 -504 0
-494 -505 0
-494 -506 0
-494 -507 0
-494 -508 0
-494 -509 0
-494 -510 0
-494 -511 0
-494 -512 0
-494 -513 0
-494 -514 0
-494 -515 0
-494 -516 0
-494 -517 0
-494 -518 0
-494 -519 0
-494 -520 0
-494 -521 0
-494 -522 0
-494 -523 0
-494 -524 0
-494 -525 0
-494 -526 0
-494 -527 0
-494 -528 0
-494 -529 0
-494 -530 0
-494 -531 0
-494 -532 0
-494 -533 0
-494 -534 0
-494 -535 0
-494 -536 0
-494 -537 0
-494 -538 0
-494 -539 0
-494 -540 0
-494 -541 0
-494 -542 0
-494 -543 0
-494 -544 0
-494 -545 0
-494 -546 0
-494 -547 0
-494 -548 0
-494 -549 0
-494 -550 0
-494 -551 0
-494 -552 0
-494 -553 0
-494 -554 0
-494 -555 0
-494 -556 0
-494 -557 0
-494 -558 0
-494 -559 0
-494 -560 0
-495 -496 0
-495 -497 0
-495 -498 0
-495 -499 0
-495 -500 0
-495 -501 0
-495 -502 0
-495 -503 0
-495 -504 0
-495 -505 0
-495 -506 0
-495 -507 0
-495 -508 0
-495 -509 0
-495 -510 0
-495 -511 0
-495 -512 0
-495 -513 0
-495 -514 0
-495 -515 0
-495 -516 0
-495 -517 0
-495 -518 0
-495 -519 0
-495 -520 0
-495 -521 0
-495 -522 0
-495 -523 0
-495 -524 0
-495 -525 0
-495 -526 0
-495 -527 0
-495 -528 0
-495 -529 0
-495 -530 0
-495 -531 0
-495 -532 0
-495 -533 0
-495 -534 0
-495 -535 0
-495 -536 0
-495 -537 0
-495 -538 0
-495 -539 0
-495 -540 0
-495 -541 0
-495 -542 0
-495 -543 0
-495 -544 0
-495 -545 0
-495 -546 0
-495 -547 0
-495 -548 0
-495 -549 0
-495 -550 0
-495 -551 0
-495 -552 0
-495 -553 0
-495 -554 0
-495 -555 0
-495 -556 0
-495 -557 0
-495 -558 0
-495 -559 0
-495 -560 0
-496 -497 0
-496 -498 0
-496 -499 0
-496 -500 0
-496 -501 0
-496 -502 0
-496 -503 0
-496 -504 0
-496 -505 0
-496 -506 0
-496 -507 0
-496 -508 0
-496 -509 0
-496 -510 0
-496 -511 0
-496 -512 0
-496 -513 0
-496 -514 0
-496 -515 0
-496 -516 0
-496 -517 0
-496 -518 0
-496 -519 0
-496 -520 0
-496 -521 0
-496 -522 0
-496 -523 0
-496 -524 0
-496 -525 0
-496 -526 0
-496 -527 0
-496 -528 0
-496 -529 0
-496 -530 0
-496 -531 0
-496 -532 0
-496 -533 0
-496 -534 0
-496 -535 0
-496 -536 0
-496 -537 0
-496 -538 0
-496 -539 0
-496 -540 0
-496 -541 0
-496 -542 0
-496 -543 0
-496 -544 0
-496 -545 0
-496 -546 0
-496 -547 0
-496 -548 0
-496 -549 0
-496 -550 0
-496 -551 0
-496 -552 0
-496 -553 0
-496 -554 0
-496 -555 0
-496 -556 0
-496 -557 0
-496 -558 0
-496 -559 0
-496 -560 0
-497 -498 0
-497 -499 0
-497 -500 0
-497 -501 0
-497 -502 0
-497 -503 0
-497 -504 0
-497 -505 0
-497 -506 0
-497 -507 0
-497 -508 0
-497 -509 0
-497 -510 0
-497 -511 0
-497 -512 0
-497 -513 0
-497 -514 0
-497 -515 0
-497 -516 0
-497 -517 0
-497 -518 0
-497 -519 0
-497 -520 0
-497 -521 0
-497 -522 0
-497 -523 0
-497 -524 0
-497 -525 0
-497 -526 0
-497 -527 0
-497 -528 0
-497 -529 0
-497 -530 0
-497 -531 0
-497 -532 0
-497 -533 0
-497 -534 0
-497 -535 0
-497 -536 0
-497 -537 0
-497 -538 0
-497 -539 0
-497 -540 0
-497 -541 0
-497 -542 0
-497 -543 0
-497 -544 0
-497 -545 0
-497 -546 0
-497 -547 0
-497 -548 0
-497 -549 0
-497 -550 0
-497 -551 0
-497 -552 0
-497 -553 0
-497 -554 0
-497 -555 0
-497 -556 0
-497 -557 0
-497 -558 0
-497 -559 0
-497 -560 0
-498 -499 0
-498 -500 0
-498 -501 0
-498 -502 0
-498 -503 0
-498 -504 0
-498 -505 0
-498 -506 0
-498 -507 0
-498 -508 0
-498 -509 0
-498 -510 0
-498 -511 0
-498 -512 0
-498 -513 0
-498 -514 0
-498 -515 0
-498 -516 0
-498 -517 0
-498 -518 0
-498 -519 0
-498 -520 0
-498 -521 0
-498 -522 0
-498 -523 0
-498 -524 0
-498 -525 0
-498 -526 0
-498 -527 0
-498 -528 0
-498 -529 0
-498 -530 0
-498 -531 0
-498 -532 0
-498 -533 0
-498 -534 0
-498 -535 0
-498 -536 0
-498 -537 0
-498 -538 0
-498 -539 0
-498 -540 0
-498 -541 0
-498 -542 0
-498 -543 0
-498 -544 0
-498 -545 0
-498 -546 0
-498 -547 0
-498 -548 0
-498 -549 0
-498 -550 0
-498 -551 0
-498 -552 0
-498 -553 0
-498 -554 0
-498 -555 0
-498 -556 0
-498 -557 0
-498 -558 0
-498 -559 0
-498 -560 0
-499 -500 0
-499 -501 0
-499 -502 0
-499 -503 0
-499 -504 0
-499 -505 0
-499 -506 0
-499 -507 0
-499 -508 0
-499 -509 0
-499 -510 0
-499 -511 0
-499 -512 0
-499 -513 0
-499 -514 0
-499 -515 0
-499 -516 0
-499 -517 0
-499 -518 0
-499 -519 0
-499 -520 0
-499 -521 0
-499 -522 0
-499 -523 0
-499 -524 0
-499 -525 0
-499 -526 0
-499 -527 0
-499 -528 0
-499 -529 0
-499 -530 0
-499 -531 0
-499 -532 0
-499 -533 0
-499 -534 0
-499 -535 0
-499 -536 0
-499 -537 0
-499 -538 0
-499 -539 0
-499 -540 0
-499 -541 0
-499 -542 0
-499 -543 0
-499 -544 0
-499 -545 0
-499 -546 0
-499 -547 0
-499 -548 0
-499 -549 0
-499 -550 0
-499 -551 0
-499 -552 0
-499 -553 0
-499 -554 0
-499 -555 0
-499 -556 0
-499 -557 0
-499 -558 0
-499 -559 0
-499 -560 0
-500 -501 0
-500 -502 0
-500 -503 0
-500 -504 0
-500 -505 0
-500 -506 0
-500 -507 0
-500 -508 0
-500 -509 0
-500 -510 0
-500 -511 0
-500 -512 0
-500 -513 0
-500 -514 0
-500 -515 0
-500 -516 0
-500 -517 0
-500 -518 0
-500 -519 0
-500 -520 0
-500 -521 0
-500 -522 0
-500 -523 0
-500 -524 0
-500 -525 0
-500 -526 0
-500 -527 0
-500 -528 0
-500 -529 0
-500 -530 0
-500 -531 0
-500 -532 0
-500 -533 0
-500 -534 0
-500 -535 0
-500 -536 0
-500 -537 0
-500 -538 0
-500 -539 0
-500 -540 0
-500 -541 0
-500 -542 0
-500 -543 0
-500 -544 0
-500 -545 0
-500 -546 0
-500 -547 0
-500 -548 0
-500 -549 0
-500 -550 0
-500 -551 0
-500 -552 0
-500 -553 0
-500 -554 0
-500 -555 0
-500 -556 0
-500 -557 0
-500 -558 0
-500 -559 0
-500 -560 0
-501 -502 0
-501 -503 0
-501 -504 0
-501 -505 0
-501 -506 0
-501 -507 0
-501 -508 0
-501 -509 0
-501 -510 0
-501 -511 0
-501 -512 0
-501 -513 0
-501 -514 0
-501 -515 0
-501 -516 0
-501 -517 0
-501 -518 0
-501 -519 0
-501 -520 0
-501 -521 0
-501 -522 0
-501 -523 0
-501 -524 0
-501 -525 0
-501 -526 0
-501 -527 0
-501 -528 0
-501 -529 0
-501 -530 0
-501 -531 0
-501 -532 0
-501 -533 0
-501 -534 0
-501 -535 0
-501 -536 0
-501 -537 0
-501 -538 0
-501 -539 0
-501 -540 0
-501 -541 0
-501 -542 0
-501 -543 0
-501 -544 0
-501 -545 0
-501 -546 0
-501 -547 0
-501 -548 0
-501 -549 0
-501 -550 0
-501 -551 0
-501 -552 0
-501 -553 0
-501 -554 0
-501 -555 0
-501 -556 0
-501 -557 0
-501 -558 0
-501 -559 0
-501 -560 0
-502 -503 0
-502 -504 0
-502 -505 0
-502 -506 0
-502 -507 0
-502 -508 0
-502 -509 0
-502 -510 0
-502 -511 0
-502 -512 0
-502 -513 0
-502 -514 0
-502 -515 0
-502 -516 0
-502 -517 0
-502 -518 0
-502 -519 0
-502 -520 0
-502 -521 0
-502 -522 0
-502 -523 0
-502 -524 0
-502 -525 0
-502 -526 0
-502 -527 0
-502 -528 0
-502 -529 0
-502 -530 0
-502 -531 0
-502 -532 0
-502 -533 0
-502 -534 0
-502 -535 0
-502 -536 0
-502 -537 0
-502 -538 0
-502 -539 0
-502 -540 0
-502 -541 0
-502 -542 0
-502 -543 0
-502 -544 0
-502 -545 0
-502 -546 0
-502 -547 0
-502 -548 0
-502 -549 0
-502 -550 0
-502 -551 0
-502 -552 0
-502 -553 0
-502 -554 0
-502 -555 0
-502 -556 0
-502 -557 0
-502 -558 0
-502 -559 0
-502 -560 0
-503 -504 0
-503 -505 0
-503 -506 0
-503 -507 0
-503 -508 0
-503 -509 0
-503 -510 0
-503 -511 0
-503 -512 0
-503 -513 0
-503 -514 0
-503 -515 0
-503 -516 0
-503 -517 0
-503 -518 0
-503 -519 0
-503 -520 0
-503 -521 0
-503 -522 0
-503 -523 0
-503 -524 0
-503 -525 0
-503 -526 0
-503 -527 0
-503 -528 0
-503 -529 0
-503 -530 0
-503 -531 0
-503 -532 0
-503 -533 0
-503 -534 0
-503 -535 0
-503 -536 0
-503 -537 0
-503 -538 0
-503 -539 0
-503 -540 0
-503 -541 0
-503 -542 0
-503 -543 0
-503 -544 0
-503 -545 0
-503 -546 0
-503 -547 0
-503 -548 0
-503 -549 0
-503 -550 0
-503 -551 0
-503 -552 0
-503 -553 0
-503 -554 0
-503 -555 0
-503 -556 0
-503 -557 0
-503 -558 0
-503 -559 0
-503 -560 0
-504 -505 0
-504 -506 0
-504 -507 0
-504 -508 0
-504 -509 0
-504 -510 0
-504 -511 0
-504 -512 0
-504 -513 0
-504 -514 0
-504 -515 0
-504 -516 0
-504 -517 0
-504 -518 0
-504 -519 0
-504 -520 0
-504 -521 0
-504 -522 0
-504 -523 0
-504 -524 0
-504 -525 0
-504 -526 0
-504 -527 0
-504 -528 0
-504 -529 0
-504 -530 0
-504 -531 0
-504 -532 0
-504 -533 0
-504 -534 0
-504 -535 0
-504 -536 0
-504 -537 0
-504 -538 0
-504 -539 0
-504 -540 0
-504 -541 0
-504 -542 0
-504 -543 0
-504 -544 0
-504 -545 0
-504 -546 0
-504 -547 0
-504 -548 0
-504 -549 0
-504 -550 0
-504 -551 0
-504 -552 0
-504 -553 0
-504 -554 0
-504 -555 0
-504 -556 0
-504 -557 0
-504 -558 0
-504 -559 0
-504 -560 0
-505 -506 0
-505 -507 0
-505 -508 0
-505 -509 0
-505 -510 0
-505 -511 0
-505 -512 0
-505 -513 0
-505 -514 0
-505 -515 0
-505 -516 0
-505 -517 0
-505 -518 0
-505 -519 0
-505 -520 0
-505 -521 0
-505 -522 0
-505 -523 0
-505 -524 0
-505 -525 0
-505 -526 0
-505 -527 0
-505 -528 0
-505 -529 0
-505 -530 0
-505 -531 0
-505 -532 0
-505 -533 0
-505 -534 0
-505 -535 0
-505 -536 0
-505 -537 0
-505 -538 0
-505 -539 0
-505 -540 0
-505 -541 0
-505 -542 0
-505 -543 0
-505 -544 0
-505 -545 0
-505 -546 0
-505 -547 0
-505 -548 0
-505 -549 0
-505 -550 0
-505 -551 0
-505 -552 0
-505 -553 0
-505 -554 0
-505 -555 0
-505 -556 0
-505 -557 0
-505 -558 0
-505 -559 0
-505 -560 0
-506 -507 0
-506 -508 0
-506 -509 0
-506 -510 0
-506 -511 0
-506 -512 0
-506 -513 0
-506 -514 0
-506 -515 0
-506 -516 0
-506 -517 0
-506 -518 0
-506 -519 0
-506 -520 0
-506 -521 0
-506 -522 0
-506 -523 0
-506 -524 0
-506 -525 0
-506 -526 0
-506 -527 0
-506 -528 0
-506 -529 0
-506 -530 0
-506 -531 0
-506 -532 0
-506 -533 0
-506 -534 0
-506 -535 0
-506 -536 0
-506 -537 0
-506 -538 0
-506 -539 0
-506 -540 0
-506 -541 0
-506 -542 0
-506 -543 0
-506 -544 0
-506 -545 0
-506 -546 0
-506 -547 0
-506 -548 0
-506 -549 0
-506 -550 0
-506 -551 0
-506 -552 0
-506 -553 0
-506 -554 0
-506 -555 0
-506 -556 0
-506 -557 0
-506 -558 0
-506 -559 0
-506 -560 0
-507 -508 0
-507 -509 0
-507 -510 0
-507 -511 0
-507 -512 0
-507 -513 0
-507 -514 0
-507 -515 0
-507 -516 0
-507 -517 0
-507 -518 0
-507 -519 0
-507 -520 0
-507 -521 0
-507 -522 0
-507 -523 0
-507 -524 0
-507 -525 0
-507 -526 0
-507 -527 0
-507 -528 0
-507 -529 0
-507 -530 0
-507 -531 0
-507 -532 0
-507 -533 0
-507 -534 0
-507 -535 0
-507 -536 0
-507 -537 0
-507 -538 0
-507 -539 0
-507 -540 0
-507 -541 0
-507 -542 0
-507 -543 0
-507 -544 0
-507 -545 0
-507 -546 0
-507 -547 0
-507 -548 0
-507 -549 0
-507 -550 0
-507 -551 0
-507 -552 0
-507 -553 0
-507 -554 0
-507 -555 0
-507 -556 0
-507 -557 0
-507 -558 0
-507 -559 0
-507 -560 0
-508 -509 0
-508 -510 0
-508 -511 0
-508 -512 0
-508 -513 0
-508 -514 0
-508 -515 0
-508 -516 0
-508 -517 0
-508 -518 0
-508 -519 0
-508 -520 0
-508 -521 0
-508 -522 0
-508 -523 0
-508 -524 0
-508 -525 0
-508 -526 0
-508 -527 0
-508 -528 0
-508 -529 0
-508 -530 0
-508 -531 0
-508 -532 0
-508 -533 0
-508 -534 0
-508 -535 0
-508 -536 0
-508 -537 0
-508 -538 0
-508 -539 0
-508 -540 0
-508 -541 0
-508 -542 0
-508 -543 0
-508 -544 0
-508 -545 0
-508 -546 0
-508 -547 0
-508 -548 0
-508 -549 0
-508 -550 0
-508 -551 0
-508 -552 0
-508 -553 0
-508 -554 0
-508 -555 0
-508 -556 0
-508 -557 0
-508 -558 0
-508 -559 0
-508 -560 0
-509 -510 0
-509 -511 0
-509 -512 0
-509 -513 0
-509 -514 0
-509 -515 0
-509 -516 0
-509 -517 0
-509 -518 0
-509 -519 0
-509 -520 0
-509 -521 0
-509 -522 0
-509 -523 0
-509 -524 0
-509 -525 0
-509 -526 0
-509 -527 0
-509 -528 0
-509 -529 0
-509 -530 0
-509 -531 0
-509 -532 0
-509 -533 0
-509 -534 0
-509 -535 0
-509 -536 0
-509 -537 0
-509 -538 0
-509 -539 0
-509 -540 0
-509 -541 0
-509 -542 0
-509 -543 0
-509 -544 0
-509 -545 0
-509 -546 0
-509 -547 0
-509 -548 0
-509 -549 0
-509 -550 0
-509 -551 0
-509 -552 0
-509 -553 0
-509 -554 0
-509 -555 0
-509 -556 0
-509 -557 0
-509 -558 0
-509 -559 0
-509 -560 0
-510 -511 0
-510 -512 0
-510 -513 0
-510 -514 0
-510 -515 0
-510 -516 0
-510 -517 0
-510 -518 0
-510 -519 0
-510 -520 0
-510 -521 0
-510 -522 0
-510 -523 0
-510 -524 0
-510 -525 0
-510 -526 0
-510 -527 0
-510 -528 0
-510 -529 0
-510 -530 0
-510 -531 0
-510 -532 0
-510 -533 0
-510 -534 0
-510 -535 0
-510 -536 0
-510 -537 0
-510 -538 0
-510 -539 0
-510 -540 0
-510 -541 0
-510 -542 0
-510 -543 0
-510 -544 0
-510 -545 0
-510 -546 0
-510 -547 0
-510 -548 0
-510 -549 0
-510 -550 0
-510 -551 0
-510 -552 0
-510 -553 0
-510 -554 0
-510 -555 0
-510 -556 0
-510 -557 0
-510 -558 0
-510 -559 0
-510 -560 0
-511 -512 0
-511 -513 0
-511 -514 0
-511 -515 0
-511 -516 0
-511 -517 0
-511 -518 0
-511 -519 0
-511 -520 0
-511 -521 0
-511 -522 0
-511 -523 0
-511 -524 0
-511 -525 0
-511 -526 0
-511 -527 0
-511 -528 0
-511 -529 0
-511 -530 0
-511 -531 0
-511 -532 0
-511 -533 0
-511 -534 0
-511 -535 0
-511 -536 0
-511 -537 0
-511 -538 0
-511 -539 0
-511 -540 0
-511 -541 0
-511 -542 0
-511 -543 0
-511 -544 0
-511 -545 0
-511 -546 0
-511 -547 0
-511 -548 0
-511 -549 0
-511 -550 0
-511 -551 0
-511 -552 0
-511 -553 0
-511 -554 0
-511 -555 0
-511 -556 0
-511 -557 0
-511 -558 0
-511 -559 0
-511 -560 0
-512 -513 0
-512 -514 0
-512 -515 0
-512 -516 0
-512 -517 0
-512 -518 0
-512 -519 0
-512 -520 0
-512 -521 0
-512 -522 0
-512 -523 0
-512 -524 0
-512 -525 0
-512 -526 0
-512 -527 0
-512 -528 0
-512 -529 0
-512 -530 0
-512 -531 0
-512 -532 0
-512 -533 0
-512 -534 0
-512 -535 0
-512 -536 0
-512 -537 0
-512 -538 0
-512 -539 0
-512 -540 0
-512 -541 0
-512 -542 0
-512 -543 0
-512 -544 0
-512 -545 0
-512 -546 0
-512 -547 0
-512 -548 0
-512 -549 0
-512 -550 0
-512 -551 0
-512 -552 0
-512 -553 0
-512 -554 0
-512 -555 0
-512 -556 0
-512 -557 0
-512 -558 0
-512 -559 0
-512 -560 0
-513 -514 0
-513 -515 0
-513 -516 0
-513 -517 0
-513 -518 0
-513 -519 0
-513 -520 0
-513 -521 0
-513 -522 0
-513 -523 0
-513 -524 0
-513 -525 0
-513 -526 0
-513 -527 0
-513 -528 0
-513 -529 0
-513 -530 0
-513 -531 0
-513 -532 0
-513 -533 0
-513 -534 0
-513 -535 0
-513 -536 0
-513 -537 0
-513 -538 0
-513 -539 0
-513 -540 0
-513 -541 0
-513 -542 0
-513 -543 0
-513 -544 0
-513 -545 0
-513 -546 0
-513 -547 0
-513 -548 0
-513 -549 0
-513 -550 0
-513 -551 0
-513 -552 0
-513 -553 0
-513 -554 0
-513 -555 0
-513 -556 0
-513 -557 0
-513 -558 0
-513 -559 0
-513 -560 0
-514 -515 0
-514 -516 0
-514 -517 0
-514 -518 0
-514 -519 0
-514 -520 0
-514 -521 0
-514 -522 0
-514 -523 0
-514 -524 0
-514 -525 0
-514 -526 0
-514 -527 0
-514 -528 0
-514 -529 0
-514 -530 0
-514 -531 0
-514 -532 0
-514 -533 0
-514 -534 0
-514 -535 0
-514 -536 0
-514 -537 0
-514 -538 0
-514 -539 0
-514 -540 0
-514 -541 0
-514 -542 0
-514 -543 0
-514 -544 0
-514 -545 0
-514 -546 0
-514 -547 0
-514 -548 0
-514 -549 0
-514 -550 0
-514 -551 0
-514 -552 0
-514 -553 0
-514 -554 0
-514 -555 0
-514 -556 0
-514 -557 0
-514 -558 0
-514 -559 0
-514 -560 0
-515 -516 0
-515 -517 0
-515 -518 0
-515 -519 0
-515 -520 0
-515 -521 0
-515 -522 0
-515 -523 0
-515 -524 0
-515 -525 0
-515 -526 0
-515 -527 0
-515 -528 0
-515 -529 0
-515 -530 0
-515 -531 0
-515 -532 0
-515 -533 0
-515 -534 0
-515 -535 0
-515 -536 0
-515 -537 0
-515 -538 0
-515 -539 0
-515 -540 0
-515 -541 0
-515 -542 0
-515 -543 0
-515 -544 0
-515 -545 0
-515 -546 0
-515 -547 0
-515 -548 0
-515 -549 0
-515 -550 0
-515 -551 0
-515 -552 0
-515 -553 0
-515 -554 0
-515 -555 0
-515 -556 0
-515 -557 0
-515 -558 0
-515 -559 0
-515 -560 0
-516 -517 0
-516 -518 0
-516 -519 0
-516 -520 0
-516 -521 0
-516 -522 0
-516 -523 0
-516 -524 0
-516 -525 0
-516 -526 0
-516 -527 0
-516 -528 0
-516 -529 0
-516 -530 0
-516 -531 0
-516 -532 0
-516 -533 0
-516 -534 0
-516 -535 0
-516 -536 0
-516 -537 0
-516 -538 0
-516 -539 0
-516 -540 0
-516 -541 0
-516 -542 0
-516 -543 0
-516 -544 0
-516 -545 0
-516 -546 0
-516 -547 0
-516 -548 0
-516 -549 0
-516 -550 0
-516 -551 0
-516 -552 0
-516 -553 0
-516 -554 0
-516 -555 0
-516 -556 0
-516 -557 0
-516 -558 0
-516 -559 0
-516 -560 0
-517 -518 0
-517 -519 0
-517 -520 0
-517 -521 0
-517 -522 0
-517 -523 0
-517 -524 0
-517 -525 0
-517 -526 0
-517 -527 0
-517 -528 0
-517 -529 0
-517 -530 0
-517 -531 0
-517 -532 0
-517 -533 0
-517 -534 0
-517 -535 0
-517 -536 0
-517 -537 0
-517 -538 0
-517 -539 0
-517 -540 0
-517 -541 0
-517 -542 0
-517 -543 0
-517 -544 0
-517 -545 0
-517 -546 0
-517 -547 0
-517 -548 0
-517 -549 0
-517 -550 0
-517 -551 0
-517 -552 0
-517 -553 0
-517 -554 0
-517 -555 0
-517 -556 0
-517 -557 0
-517 -558 0
-517 -559 0
-517 -560 0
-518 -519 0
-518 -520 0
-518 -521 0
-518 -522 0
-518 -523 0
-518 -524 0
-518 -525 0
-518 -526 0
-518 -527 0
-518 -528 0
-518 -529 0
-518 -530 0
-518 -531 0
-518 -532 0
-518 -533 0
-518 -534 0
-518 -535 0
-518 -536 0
-518 -537 0
-518 -538 0
-518 -539 0
-518 -540 0
-518 -541 0
-518 -542 0
-518 -543 0
-518 -544 0
-518 -545 0
-518 -546 0
-518 -547 0
-518 -548 0
-518 -549 0
-518 -550 0
-518 -551 0
-518 -552 0
-518 -553 0
-518 -554 0
-518 -555 0
-518 -556 0
-518 -557 0
-518 -558 0
-518 -559 0
-518 -560 0
-519 -520 0
-519 -521 0
-519 -522 0
-519 -523 0
-519 -524 0
-519 -525 0
-519 -526 0
-519 -527 0
-519 -528 0
-519 -529 0
-519 -530 0
-519 -531 0
-519 -532 0
-519 -533 0
-519 -534 0
-519 -535 0
-519 -536 0
-519 -537 0
-519 -538 0
-519 -539 0
-519 -540 0
-519 -541 0
-519 -542 0
-519 -543 0
-519 -544 0
-519 -545 0
-519 -546 0
-519 -547 0
-519 -548 0
-519 -549 0
-519 -550 0
-519 -551 0
-519 -552 0
-519 -553 0
-519 -554 0
-519 -555 0
-519 -556 0
-519 -557 0
-519 -558 0
-519 -559 0
-519 -560 0
-520 -521 0
-520 -522 0
-520 -523 0
-520 -524 0
-520 -525 0
-520 -526 0
-520 -527 0
-520 -528 0
-520 -529 0
-520 -530 0
-520 -531 0
-520 -532 0
-520 -533 0
-520 -534 0
-520 -535 0
-520 -536 0
-520 -537 0
-520 -538 0
-520 -539 0
-520 -540 0
-520 -541 0
-520 -542 0
-520 -543 0
-520 -544 0
-520 -545 0
-520 -546 0
-520 -547 0
-520 -548 0
-520 -549 0
-520 -550 0
-520 -551 0
-520 -552 0
-520 -553 0
-520 -554 0
-520 -555 0
-520 -556 0
-520 -557 0
-520 -558 0
-520 -559 0
-520 -560 0
-521 -522 0
-521 -523 0
-521 -524 0
-521 -525 0
-521 -526 0
-521 -527 0
-521 -528 0
-521 -529 0
-521 -530 0
-521 -531 0
-521 -532 0
-521 -533 0
-521 -534 0
-521 -535 0
-521 -536 0
-521 -537 0
-521 -538 0
-521 -539 0
-521 -540 0
-521 -541 0
-521 -542 0
-521 -543 0
-521 -544 0
-521 -545 0
-521 -546 0
-521 -547 0
-521 -548 0
-521 -549 0
-521 -550 0
-521 -551 0
-521 -552 0
-521 -553 0
-521 -554 0
-521 -555 0
-521 -556 0
-521 -557 0
-521 -558 0
-521 -559 0
-521 -560 0
-522 -523 0
-522 -524 0
-522 -525 0
-522 -526 0
-522 -527 0
-522 -528 0
-522 -529 0
-522 -530 0
-522 -531 0
-522 -532 0
-522 -533 0
-522 -534 0
-522 -535 0
-522 -536 0
-522 -537 0
-522 -538 0
-522 -539 0
-522 -540 0
-522 -541 0
-522 -542 0
-522 -543 0
-522 -544 0
-522 -545 0
-522 -546 0
-522 -547 0
-522 -548 0
-522 -549 0
-522 -550 0
-522 -551 0
-522 -552 0
-522 -553 0
-522 -554 0
-522 -555 0
-522 -556 0
-522 -557 0
-522 -558 0
-522 -559 0
-522 -560 0
-523 -524 0
-523 -525 0
-523 -526 0
-523 -527 0
-523 -528 0
-523 -529 0
-523 -530 0
-523 -531 0
-523 -532 0
-523 -533 0
-523 -534 0
-523 -535 0
-523 -536 0
-523 -537 0
-523 -538 0
-523 -539 0
-523 -540 0
-523 -541 0
-523 -542 0
-523 -543 0
-523 -544 0
-523 -545 0
-523 -546 0
-523 -547 0
-523 -548 0
-523 -549 0
-523 -550 0
-523 -551 0
-523 -552 0
-523 -553 0
-523 -554 0
-523 -555 0
-523 -556 0
-523 -557 0
-523 -558 0
-523 -559 0
-523 -560 0
-524 -525 0
-524 -526 0
-524 -527 0
-524 -528 0
-524 -529 0
-524 -530 0
-524 -531 0
-524 -532 0
-524 -533 0
-524 -534 0
-524 -535 0
-524 -536 0
-524 -537 0
-524 -538 0
-524 -539 0
-524 -540 0
-524 -541 0
-524 -542 0
-524 -543 0
-524 -544 0
-524 -545 0
-524 -546 0
-524 -547 0
-524 -548 0
-524 -549 0
-524 -550 0
-524 -551 0
-524 -552 0
-524 -553 0
-524 -554 0
-524 -555 0
-524 -556 0
-524 -557 0
-524 -558 0
-524 -559 0
-524 -560 0
-525 -526 0
-525 -527 0
-525 -528 0
-525 -529 0
-525 -530 0
-525 -531 0
-525 -532 0
-525 -533 0
-525 -534 0
-525 -535 0
-525 -536 0
-525 -537 0
-525 -538 0
-525 -539 0
-525 -540 0
-525 -541 0
-525 -542 0
-525 -543 0
-525 -544 0
-525 -545 0
-525 -546 0
-525 -547 0
-525 -548 0
-525 -549 0
-525 -550 0
-525 -551 0
-525 -552 0
-525 -553 0
-525 -554 0
-525 -555 0
-525 -556 0
-525 -557 0
-525 -558 0
-525 -559 0
-525 -560 0
-526 -527 0
-526 -528 0
-526 -529 0
-526 -530 0
-526 -531 0
-526 -532 0
-526 -533 0
-526 -534 0
-526 -535 0
-526 -536 0
-526 -537 0
-526 -538 0
-526 -539 0
-526 -540 0
-526 -541 0
-526 -542 0
-526 -543 0
-526 -544 0
-526 -545 0
-526 -546 0
-526 -547 0
-526 -548 0
-526 -549 0
-526 -550 0
-526 -551 0
-526 -552 0
-526 -553 0
-526 -554 0
-526 -555 0
-526 -556 0
-526 -557 0
-526 -558 0
-526 -559 0
-526 -560 0
-527 -528 0
-527 -529 0
-527 -530 0
-527 -531 0
-527 -532 0
-527 -533 0
-527 -534 0
-527 -535 0
-527 -536 0
-527 -537 0
-527 -538 0
-527 -539 0
-527 -540 0
-527 -541 0
-527 -542 0
-527 -543 0
-527 -544 0
-527 -545 0
-527 -546 0
-527 -547 0
-527 -548 0
-527 -549 0
-527 -550 0
-527 -551 0
-527 -552 0
-527 -553 0
-527 -554 0
-527 -555 0
-527 -556 0
-527 -557 0
-527 -558 0
-527 -559 0
-527 -560 0
-528 -529 0
-528 -530 0
-528 -531 0
-528 -532 0
-528 -533 0
-528 -534 0
-528 -535 0
-528 -536 0
-528 -537 0
-528 -538 0
-528 -539 0
-528 -540 0
-528 -541 0
-528 -542 0
-528 -543 0
-528 -544 0
-528 -545 0
-528 -546 0
-528 -547 0
-528 -548 0
-528 -549 0
-528 -550 0
-528 -551 0
-528 -552 0
-528 -553 0
-528 -554 0
-528 -555 0
-528 -556 0
-528 -557 0
-528 -558 0
-528 -559 0
-528 -560 0
-529 -530 0
-529 -531 0
-529 -532 0
-529 -533 0
-529 -534 0
-529 -535 0
-529 -536 0
-529 -537 0
-529 -538 0
-529 -539 0
-529 -540 0
-529 -541 0
-529 -542 0
-529 -543 0
-529 -544 0
-529 -545 0
-529 -546 0
-529 -547 0
-529 -548 0
-529 -549 0
-529 -550 0
-529 -551 0
-529 -552 0
-529 -553 0
-529 -554 0
-529 -555 0
-529 -556 0
-529 -557 0
-529 -558 0
-529 -559 0
-529 -560 0
-530 -531 0
-530 -532 0
-530 -533 0
-530 -534 0
-530 -535 0
-530 -536 0
-530 -537 0
-530 -538 0
-530 -539 0
-530 -540 0
-530 -541 0
-530 -542 0
-530 -543 0
-530 -544 0
-530 -545 0
-530 -546 0
-530 -547 0
-530 -548 0
-530 -549 0
-530 -550 0
-530 -551 0
-530 -552 0
-530 -553 0
-530 -554 0
-530 -555 0
-530 -556 0
-530 -557 0
-530 -558 0
-530 -559 0
-530 -560 0
-531 -532 0
-531 -533 0
-531 -534 0
-531 -535 0
-531 -536 0
-531 -537 0
-531 -538 0
-531 -539 0
-531 -540 0
-531 -541 0
-531 -542 0
-531 -543 0
-531 -544 0
-531 -545 0
-531 -546 0
-531 -547 0
-531 -548 0
-531 -549 0
-531 -550 0
-531 -551 0
-531 -552 0
-531 -553 0
-531 -554 0
-531 -555 0
-531 -556 0
-531 -557 0
-531 -558 0
-531 -559 0
-531 -560 0
-532 -533 0
-532 -534 0
-532 -535 0
-532 -536 0
-532 -537 0
-532 -538 0
-532 -539 0
-532 -540 0
-532 -541 0
-532 -542 0
-532 -543 0
-532 -544 0
-532 -545 0
-532 -546 0
-532 -547 0
-532 -548 0
-532 -549 0
-532 -550 0
-532 -551 0
-532 -552 0
-532 -553 0
-532 -554 0
-532 -555 0
-532 -556 0
-532 -557 0
-532 -558 0
-532 -559 0
-532 -560 0
-533 -534 0
-533 -535 0
-533 -536 0
-533 -537 0
-533 -538 0
-533 -539 0
-533 -540 0
-533 -541 0
-533 -542 0
-533 -543 0
-533 -544 0
-533 -545 0
-533 -546 0
-533 -547 0
-533 -548 0
-533 -549 0
-533 -550 0
-533 -551 0
-533 -552 0
-533 -553 0
-533 -554 0
-533 -555 0
-533 -556 0
-533 -557 0
-533 -558 0
-533 -559 0
-533 -560 0
-534 -535 0
-534 -536 0
-534 -537 0
-534 -538 0
-534 -539 0
-534 -540 0
-534 -541 0
-534 -542 0
-534 -543 0
-534 -544 0
-534 -545 0
-534 -546 0
-534 -547 0
-534 -548 0
-534 -549 0
-534 -550 0
-534 -551 0
-534 -552 0
-534 -553 0
-534 -554 0
-534 -555 0
-534 -556 0
-534 -557 0
-534 -558 0
-534 -559 0
-534 -560 0
-535 -536 0
-535 -537 0
-535 -538 0
-535 -539 0
-535 -540 0
-535 -541 0
-535 -542 0
-535 -543 0
-535 -544 0
-535 -545 0
-535 -546 0
-535 -547 0
-535 -548 0
-535 -549 0
-535 -550 0
-535 -551 0
-535 -552 0
-535 -553 0
-535 -554 0
-535 -555 0
-535 -556 0
-535 -557 0
-535 -558 0
-535 -559 0
-535 -560 0
-536 -537 0
-536 -538 0
-536 -539 0
-536 -540 0
-536 -541 0
-536 -542 0
-536 -543 0
-536 -544 0
-536 -545 0
-536 -546 0
-536 -547 0
-536 -548 0
-536 -549 0
-536 -550 0
-536 -551 0
-536 -552 0
-536 -553 0
-536 -554 0
-536 -555 0
-536 -556 0
-536 -557 0
-536 -558 0
-536 -559 0
-536 -560 0
-537 -538 0
-537 -539 0
-537 -540 0
-537 -541 0
-537 -542 0
-537 -543 0
-537 -544 0
-537 -545 0
-537 -546 0
-537 -547 0
-537 -548 0
-537 -549 0
-537 -550 0
-537 -551 0
-537 -552 0
-537 -553 0
-537 -554 0
-537 -555 0
-537 -556 0
-537 -557 0
-537 -558 0
-537 -559 0
-537 -560 0
-538 -539 0
-538 -540 0
-538 -541 0
-538 -542 0
-538 -543 0
-538 -544 0
-538 -545 0
-538 -546 0
-538 -547 0
-538 -548 0
-538 -549 0
-538 -550 0
-538 -551 0
-538 -552 0
-538 -553 0
-538 -554 0
-538 -555 0
-538 -556 0
-538 -557 0
-538 -558 0
-538 -559 0
-538 -560 0
-539 -540 0
-539 -541 0
-539 -542 0
-539 -543 0
-539 -544 0
-539 -545 0
-539 -546 0
-539 -547 0
-539 -548 0
-539 -549 0
-539 -550 0
-539 -551 0
-539 -552 0
-539 -553 0
-539 -554 0
-539 -555 0
-539 -556 0
-539 -557 0
-539 -558 0
-539 -559 0
-539 -560 0
-540 -541 0
-540 -542 0
-540 -543 0
-540 -544 0
-540 -545 0
-540 -546 0
-540 -547 0
-540 -548 0
-540 -549 0
-540 -550 0
-540 -551 0
-540 -552 0
-540 -553 0
-540 -554 0
-540 -555 0
-540 -556 0
-540 -557 0
-540 -558 0
-540 -559 0
-540 -560 0
-541 -542 0
-541 -543 0
-541 -544 0
-541 -545 0
-541 -546 0
-541 -547 0
-541 -548 0
-541 -549 0
-541 -550 0
-541 -551 0
-541 -552 0
-541 -553 0
-541 -554 0
-541 -555 0
-541 -556 0
-541 -557 0
-541 -558 0
-541 -559 0
-541 -560 0
-542 -543 0
-542 -544 0
-542 -545 0
-542 -546 0
-542 -547 0
-542 -548 0
-542 -549 0
-542 -550 0
-542 -551 0
-542 -552 0
-542 -553 0
-542 -554 0
-542 -555 0
-542 -556 0
-542 -557 0
-542 -558 0
-542 -559 0
-542 -560 0
-543 -544 0
-543 -545 0
-543 -546 0
-543 -547 0
-543 -548 0
-543 -549 0
-543 -550 0
-543 -551 0
-543 -552 0
-543 -553 0
-543 -554 0
-543 -555 0
-543 -556 0
-543 -557 0
-543 -558 0
-543 -559 0
-543 -560 0
-544 -545 0
-544 -546 0
-544 -547 0
-544 -548 0
-544 -549 0
-544 -550 0
-544 -551 0
-544 -552 0
-544 -553 0
-544 -554 0
-544 -555 0
-544 -556 0
-544 -557 0
-544 -558 0
-544 -559 0
-544 -560 0
-545 -546 0
-545 -547 0
-545 -548 0
-545 -549 0
-545 -550 0
-545 -551 0
-545 -552 0
-545 -553 0
-545 -554 0
-545 -555 0
-545 -556 0
-545 -557 0
-545 -558 0
-545 -559 0
-545 -560 0
-546 -547 0
-546 -548 0
-546 -549 0
-546 -550 0
-546 -551 0
-546 -552 0
-546 -553 0
-546 -554 0
-546 -555 0
-546 -556 0
-546 -557 0
-546 -558 0
-546 -559 0
-546 -560 0
-547 -548 0
-547 -549 0
-547 -550 0
-547 -551 0
-547 -552 0
-547 -553 0
-547 -554 0
-547 -555 0
-547 -556 0
-547 -557 0
-547 -558 0
-547 -559 0
-547 -560 0
-548 -549 0
-548 -550 0
-548 -551 0
-548 -552 0
-548 -553 0
-548 -554 0
-548 -555 0
-548 -556 0
-548 -557 0
-548 -558 0
-548 -559 0
-548 -560 0
-549 -550 0
-549 -551 0
-549 -552 0
-549 -553 0
-549 -554 0
-549 -555 0
-549 -556 0
-549 -557 0
-549 -558 0
-549 -559 0
-549 -560 0
-550 -551 0
-550 -552 0
-550 -553 0
-550 -554 0
-550 -555 0
-550 -556 0
-550 -557 0
-550 -558 0
-550 -559 0
-550 -560 0
-551 -552 0
-551 -553 0
-551 -554 0
-551 -555 0
-551 -556 0
-551 -557 0
-551 -558 0
-551 -559 0
-551 -560 0
-552 -553 0
-552 -554 0
-552 -555 0
-552 -556 0
-552 -557 0
-552 -558 0
-552 -559 0
-552 -560 0
-553 -554 0
-553 -555 0
-553 -556 0
-553 -557 0
-553 -558 0
-553 -559 0
-553 -560 0
-554 -555 0
-554 -556 0
-554 -557 0
-554 -558 0
-554 -559 0
-554 -560 0
-555 -556 0
-555 -557 0
-555 -558 0
-555 -559 0
-555 -560 0
-556 -557 0
-556 -558 0
-556 -559 0
-556 -560 0
-557 -558 0
-557 -559 0
-557 -560 0
-558 -559 0
-558 -560 0
-559 -560 0
-417 -81 0
-417 -82 0
-417 -83 0
-417 84 0
-417 -85 0
-417 -86 0
-417 -87 0
-417 88 0
-417 -89 0
-417 -90 0
-417 -91 0
-417 92 0
-417 -93 0
-417 -94 0
-417 -95 0
-417 96 0
-418 -81 0
-418 82 0
-418 -83 0
-418 -84 0
-418 -85 0
-418 86 0
-418 -87 0
-418 -88 0
-418 -89 0
-418 90 0
-418 -91 0
-418 -92 0
-418 -93 0
-418 94 0
-418 -95 0
-418 -96 0
-419 -81 0
-419 -82 0
-419 83 0
-419 -84 0
-419 -85 0
-419 -86 0
-419 87 0
-419 -88 0
-419 -89 0
-419 -90 0
-419 91 0
-419 -92 0
-419 -93 0
-419 -94 0
-419 95 0
-419 -96 0
-420 81 0
-420 -82 0
-420 -83 0
-420 -84 0
-420 85 0
-420 -86 0
-420 -87 0
-420 -88 0
-420 89 0
-420 -90 0
-420 -91 0
-420 -92 0
-420 93 0
-420 -94 0
-420 -95 0
-420 -96 0
-421 -81 0
-421 -82 0
-421 -83 0
-421 -84 0
-421 -85 0
-421 86 0
-421 -87 0
-421 88 0
-421 -89 0
-421 -90 0
-421 -91 0
-421 -92 0
-421 -93 0
-421 94 0
-421 -95 0
-421 96 0
-422 -81 0
-422 82 0
-422 -83 0
-422 84 0
-422 -85 0
-422 -86 0
-422 -87 0
-422 -88 0
-422 -89 0
-422 90 0
-422 -91 0
-422 92 0
-422 -93 0
-422 -94 0
-422 -95 0
-422 -96 0
-423 -81 0
-423 -82 0
-423 -83 0
-423 -84 0
-423 85 0
-423 -86 0
-423 87 0
-423 -88 0
-423 -89 0
-423 -90 0
-423 -91 0
-423 -92 0
-423 93 0
-423 -94 0
-423 95 0
-423 -96 0
-424 81 0
-424 -82 0
-424 83 0
-424 -84 0
-424 -85 0
-424 -86 0
-424 -87 0
-424 -88 0
-424 89 0
-424 -90 0
-424 91 0
-424 -92 0
-424 -93 0
-424 -94 0
-424 -95 0
-424 -96 0
-425 -81 0
-425 -82 0
-425 -83 0
-425 -84 0
-425 -85 0
-425 -86 0
-425 -87 0
-425 -88 0
-425 -89 0
-425 90 0
-425 -91 0
-425 92 0
-425 -93 0
-425 94 0
-425 -95 0
-425 96 0
-426 -81 0
-426 82 0
-426 -83 0
-426 84 0
-426 -85 0
-426 86 0
-426 -87 0
-426 88 0
-426 -89 0
-426 -90 0
-426 -91 0
-426 -92 0
-426 -93 0
-426 -94 0
-426 -95 0
-426 -96 0
-427 -81 0
-427 -82 0
-427 -83 0
-427 -84 0
-427 -85 0
-427 -86 0
-427 -87 0
-427 -88 0
-427 89 0
-427 -90 0
-427 91 0
-427 -92 0
-427 93 0
-427 -94 0
-427 95 0
-427 -96 0
-428 81 0
-428 -82 0
-428 83 0
-428 -84 0
-428 85 0
-428 -86 0
-428 87 0
-428 -88 0
-428 -89 0
-428 -90 0
-428 -91 0
-428 -92 0
-428 -93 0
-428 -94 0
-428 -95 0
-428 -96 0
-429 -81 0
-429 -82 2 0
-429 82 -2 0
-429 -83 0
-429 -84 4 0
-429 84 -4 0
-429 -85 0
-429 -86 6 0
-429 86 -6 0
-429 -87 0
-429 -88 8 0
-429 88 -8 0
-429 -89 0
-429 -90 10 0
-429 90 -10 0
-429 -91 0
-429 -92 12 0
-429 92 -12 0
-429 -93 0
-429 -94 14 0
-429 94 -14 0
-429 -95 0
-429 -96 16 0
-429 96 -16 0
-430 -81 0
-430 -82 -2 0
-430 82 2 0
-430 -83 0
-430 -84 -4 0
-430 84 4 0
-430 -85 0
-430 -86 -6 0
-430 86 6 0
-430 -87 0
-430 -88 -8 0
-430 88 8 0
-430 -89 0
-430 -90 -10 0
-430 90 10 0
-430 -91 0
-430 -92 -12 0
-430 92 12 0
-430 -93 0
-430 -94 -14 0
-430 94 14 0
-430 -95 0
-430 -96 -16 0
-430 96 16 0
-431 -81 1 0
-431 81 -1 0
-431 -82 0
-431 -83 3 0
-431 83 -3 0
-431 -84 0
-431 -85 5 0
-431 85 -5 0
-431 -86 0
-431 -87 7 0
-431 87 -7 0
-431 -88 0
-431 -89 9 0
-431 89 -9 0
-431 -90 0
-431 -91 11 0
-431 91 -11 0
-431 -92 0
-431 -93 13 0
-431 93 -13 0
-431 -94 0
-431 -95 15 0
-431 95 -15 0
-431 -96 0
-432 -81 -1 0
-432 81 1 0
-432 -82 0
-432 -83 -3 0
-432 83 3 0
-432 -84 0
-432 -85 -5 0
-432 85 5 0
-432 -86 0
-432 -87 -7 0
-432 87 7 0
-432 -88 0
-432 -89 -9 0
-432 89 9 0
-432 -90 0
-432 -91 -11 0
-432 91 11 0
-432 -92 0
-432 -93 -13 0
-432 93 13 0
-432 -94 0
-432 -95 -15 0
-432 95 15 0
-432 -96 0
-433 -81 0
-433 -82 18 0
-433 82 -18 0
-433 -83 0
-433 -84 20 0
-433 84 -20 0
-433 -85 0
-433 -86 22 0
-433 86 -22 0
-433 -87 0
-433 -88 24 0
-433 88 -24 0
-433 -89 0
-433 -90 26 0
-433 90 -26 0
-433 -91 0
-433 -92 28 0
-433 92 -28 0
-433 -93 0
-433 -94 30 0
-433 94 -30 0
-433 -95 0
-433 -96 32 0
-433 96 -32 0
-434 -81 0
-434 -82 -18 0
-434 82 18 0
-434 -83 0
-434 -84 -20 0
-434 84 20 0
-434 -85 0
-434 -86 -22 0
-434 86 22 0
-434 -87 0
-434 -88 -24 0
-434 88 24 0
-434 -89 0
-434 -90 -26 0
-434 90 26 0
-434 -91 0
-434 -92 -28 0
-434 92 28 0
-434 -93 0
-434 -94 -30 0
-434 94 30 0
-434 -95 0
-434 -96 -32 0
-434 96 32 0
-435 -81 17 0
-435 81 -17 0
-435 -82 0
-435 -83 19 0
-435 83 -19 0
-435 -84 0
-435 -85 21 0
-435 85 -21 0
-435 -86 0
-435 -87 23 0
-435 87 -23 0
-435 -88 0
-435 -89 25 0
-435 89 -25 0
-435 -90 0
-435 -91 27 0
-435 91 -27 0
-435 -92 0
-435 -93 29 0
-435 93 -29 0
-435 -94 0
-435 -95 31 0
-435 95 -31 0
-435 -96 0
-436 -81 -17 0
-436 81 17 0
-436 -82 0
-436 -83 -19 0
-436 83 19 0
-436 -84 0
-436 -85 -21 0
-436 85 21 0
-436 -86 0
-436 -87 -23 0
-436 87 23 0
-436 -88 0
-436 -89 -25 0
-436 89 25 0
-436 -90 0
-436 -91 -27 0
-436 91 27 0
-436 -92 0
-436 -93 -29 0
-436 93 29 0
-436 -94 0
-436 -95 -31 0
-436 95 31 0
-436 -96 0
-437 -81 0
-437 -82 34 0
-437 82 -34 0
-437 -83 0
-437 -84 36 0
-437 84 -36 0
-437 -85 0
-437 -86 38 0
-437 86 -38 0
-437 -87 0
-437 -88 40 0
-437 88 -40 0
-437 -89 0
-437 -90 42 0
-437 90 -42 0
-437 -91 0
-437 -92 44 0
-437 92 -44 0
-437 -93 0
-437 -94 46 0
-437 94 -46 0
-437 -95 0
-437 -96 48 0
-437 96 -48 0
-438 -81 0
-438 -82 -34 0
-438 82 34 0
-438 -83 0
-438 -84 -36 0
-438 84 36 0
-438 -85 0
-438 -86 -38 0
-438 86 38 0
-438 -87 0
-438 -88 -40 0
-438 88 40 0
-438 -89 0
-438 -90 -42 0
-438 90 42 0
-438 -91 0
-438 -92 -44 0
-438 92 44 0
-438 -93 0
-438 -94 -46 0
-438 94 46 0
-438 -95 0
-438 -96 -48 0
-438 96 48 0
-439 -81 33 0
-439 81 -33 0
-439 -82 0
-439 -83 35 0
-439 83 -35 0
-439 -84 0
-439 -85 37 0
-439 85 -37 0
-439 -86 0
-439 -87 39 0
-439 87 -39 0
-439 -88 0
-439 -89 41 0
-439 89 -41 0
-439 -90 0
-439 -91 43 0
-439 91 -43 0
-439 -92 0
-439 -93 45 0
-439 93 -45 0
-439 -94 0
-439 -95 47 0
-439 95 -47 0
-439 -96 0
-440 -81 -33 0
-440 81 33 0
-440 -82 0
-440 -83 -35 0
-440 83 35 0
-440 -84 0
-440 -85 -37 0
-440 85 37 0
-440 -86 0
-440 -87 -39 0
-440 87 39 0
-440 -88 0
-440 -89 -41 0
-440 89 41 0
-440 -90 0
-440 -91 -43 0
-440 91 43 0
-440 -92 0
-440 -93 -45 0
-440 93 45 0
-440 -94 0
-440 -95 -47 0
-440 95 47 0
-440 -96 0
-441 -81 0
-441 -82 50 0
-441 82 -50 0
-441 -83 0
-441 -84 52 0
-441 84 -52 0
-441 -85 0
-441 -86 54 0
-441 86 -54 0
-441 -87 0
-441 -88 56 0
-441 88 -56 0
-441 -89 0
-441 -90 58 0
-441 90 -58 0
-441 -91 0
-441 -92 60 0
-441 92 -60 0
-441 -93 0
-441 -94 62 0
-441 94 -62 0
-441 -95 0
-441 -96 64 0
-441 96 -64 0
-442 -81 0
-442 -82 -50 0
-442 82 50 0
-442 -83 0
-442 -84 -52 0
-442 84 52 0
-442 -85 0
-442 -86 -54 0
-442 86 54 0
-442 -87 0
-442 -88 -56 0
-442 88 56 0
-442 -89 0
-442 -90 -58 0
-442 90 58 0
-442 -91 0
-442 -92 -60 0
-442 92 60 0
-442 -93 0
-442 -94 -62 0
-442 94 62 0
-442 -95 0
-442 -96 -64 0
-442 96 64 0
-443 -81 49 0
-443 81 -49 0
-443 -82 0
-443 -83 51 0
-443 83 -51 0
-443 -84 0
-443 -85 53 0
-443 85 -53 0
-443 -86 0
-443 -87 55 0
-443 87 -55 0
-443 -88 0
-443 -89 57 0
-443 89 -57 0
-443 -90 0
-443 -91 59 0
-443 91 -59 0
-443 -92 0
-443 -93 61 0
-443 93 -61 0
-443 -94 0
-443 -95 63 0
-443 95 -63 0
-443 -96 0
-444 -81 -49 0
-444 81 49 0
-444 -82 0
-444 -83 -51 0
-444 83 51 0
-444 -84 0
-444 -85 -53 0
-444 85 53 0
-444 -86 0
-444 -87 -55 0
-444 87 55 0
-444 -88 0
-444 -89 -57 0
-444 89 57 0
-444 -90 0
-444 -91 -59 0
-444 91 59 0
-444 -92 0
-444 -93 -61 0
-444 93 61 0
-444 -94 0
-444 -95 -63 0
-444 95 63 0
-444 -96 0
-445 -81 0
-445 -82 66 0
-445 82 -66 0
-445 -83 0
-445 -84 68 0
-445 84 -68 0
-445 -85 0
-445 -86 70 0
-445 86 -70 0
-445 -87 0
-445 -88 72 0
-445 88 -72 0
-445 -89 0
-445 -90 74 0
-445 90 -74 0
-445 -91 0
-445 -92 76 0
-445 92 -76 0
-445 -93 0
-445 -94 78 0
-445 94 -78 0
-445 -95 0
-445 -96 80 0
-445 96 -80 0
-446 -81 0
-446 -82 -66 0
-446 82 66 0
-446 -83 0
-446 -84 -68 0
-446 84 68 0
-446 -85 0
-446 -86 -70 0
-446 86 70 0
-446 -87 0
-446 -88 -72 0
-446 88 72 0
-446 -89 0
-446 -90 -74 0
-446 90 74 0
-446 -91 0
-446 -92 -76 0
-446 92 76 0
-446 -93 0
-446 -94 -78 0
-446 94 78 0
-446 -95 0
-446 -96 -80 0
-446 96 80 0
-447 -81 65 0
-447 81 -65 0
-447 -82 0
-447 -83 67 0
-447 83 -67 0
-447 -84 0
-447 -85 69 0
-447 85 -69 0
-447 -86 0
-447 -87 71 0
-447 87 -71 0
-447 -88 0
-447 -89 73 0
-447 89 -73 0
-447 -90 0
-447 -91 75 0
-447 91 -75 0
-447 -92 0
-447 -93 77 0
-447 93 -77 0
-447 -94 0
-447 -95 79 0
-447 95 -79 0
-447 -96 0
-448 -81 -65 0
-448 81 65 0
-448 -82 0
-448 -83 -67 0
-448 83 67 0
-448 -84 0
-448 -85 -69 0
-448 85 69 0
-448 -86 0
-448 -87 -71 0
-448 87 71 0
-448 -88 0
-448 -89 -73 0
-448 89 73 0
-448 -90 0
-448 -91 -75 0
-448 91 75 0
-448 -92 0
-448 -93 -77 0
-448 93 77 0
-448 -94 0
-448 -95 -79 0
-448 95 79 0
-448 -96 0
-449 -81 0
-449 -82 0
-449 -83 0
-449 -84 0
-449 -85 0
-449 -86 0
-449 87 0
-449 88 0
-449 -89 0
-449 -90 0
-449 -91 0
-449 -92 0
-449 -93 0
-449 -94 0
-449 95 0
-449 96 0
-450 -81 0
-450 -82 0
-450 83 0
-450 84 0
-450 -85 0
-450 -86 0
-450 -87 0
-450 -88 0
-450 -89 0
-450 -90 0
-450 91 0
-450 92 0
-450 -93 0
-450 -94 0
-450 -95 0
-450 -96 0
-451 -81 0
-451 -82 0
-451 -83 0
-451 -84 0
-451 85 0
-451 86 0
-451 -87 0
-451 -88 0
-451 -89 0
-451 -90 0
-451 -91 0
-451 -92 0
-451 93 0
-451 94 0
-451 -95 0
-451 -96 0
-452 81 0
-452 82 0
-452 -83 0
-452 -84 0
-452 -85 0
-452 -86 0
-452 -87 0
-452 -88 0
-452 89 0
-452 90 0
-452 -91 0
-452 -92 0
-452 -93 0
-452 -94 0
-452 -95 0
-452 -96 0
-453 -81 0
-453 -82 0
-453 -83 0
-453 -84 0
-453 -85 0
-453 -86 0
-453 -87 0
-453 -88 0
-453 -89 0
-453 -90 0
-453 91 0
-453 92 0
-453 -93 0
-453 -94 0
-453 95 0
-453 96 0
-454 -81 0
-454 -82 0
-454 83 0
-454 84 0
-454 -85 0
-454 -86 0
-454 87 0
-454 88 0
-454 -89 0
-454 -90 0
-454 -91 0
-454 -92 0
-454 -93 0
-454 -94 0
-454 -95 0
-454 -96 0
-455 -81 0
-455 -82 0
-455 -83 0
-455 -84 0
-455 -85 0
-455 -86 0
-455 -87 0
-455 -88 0
-455 89 0
-455 90 0
-455 -91 0
-455 -92 0
-455 93 0
-455 94 0
-455 -95 0
-455 -96 0
-456 81 0
-456 82 0
-456 -83 0
-456 -84 0
-456 85 0
-456 86 0
-456 -87 0
-456 -88 0
-456 -89 0
-456 -90 0
-456 -91 0
-456 -92 0
-456 -93 0
-456 -94 0
-456 -95 0
-456 -96 0
-457 -81 0
-457 -82 0
-457 -83 3 0
-457 83 -3 0
-457 -84 4 0
-457 84 -4 0
-457 -85 0
-457 -86 0
-457 -87 7 0
-457 87 -7 0
-457 -88 8 0
-457 88 -8 0
-457 -89 0
-457 -90 0
-457 -91 11 0
-457 91 -11 0
-457 -92 12 0
-457 92 -12 0
-457 -93 0
-457 -94 0
-457 -95 15 0
-457 95 -15 0
-457 -96 16 0
-457 96 -16 0
-458 -81 0
-458 -82 0
-458 -83 -3 0
-458 83 3 0
-458 -84 -4 0
-458 84 4 0
-458 -85 0
-458 -86 0
-458 -87 -7 0
-458 87 7 0
-458 -88 -8 0
-458 88 8 0
-458 -89 0
-458 -90 0
-458 -91 -11 0
-458 91 11 0
-458 -92 -12 0
-458 92 12 0
-458 -93 0
-458 -94 0
-458 -95 -15 0
-458 95 15 0
-458 -96 -16 0
-458 96 16 0
-459 -81 1 0
-459 81 -1 0
-459 -82 2 0
-459 82 -2 0
-459 -83 0
-459 -84 0
-459 -85 5 0
-459 85 -5 0
-459 -86 6 0
-459 86 -6 0
-459 -87 0
-459 -88 0
-459 -89 9 0
-459 89 -9 0
-459 -90 10 0
-459 90 -10 0
-459 -91 0
-459 -92 0
-459 -93 13 0
-459 93 -13 0
-459 -94 14 0
-459 94 -14 0
-459 -95 0
-459 -96 0
-460 -81 -1 0
-460 81 1 0
-460 -82 -2 0
-460 82 2 0
-460 -83 0
-460 -84 0
-460 -85 -5 0
-460 85 5 0
-460 -86 -6 0
-460 86 6 0
-460 -87 0
-460 -88 0
-460 -89 -9 0
-460 89 9 0
-460 -90 -10 0
-460 90 10 0
-460 -91 0
-460 -92 0
-460 -93 -13 0
-460 93 13 0
-460 -94 -14 0
-460 94 14 0
-460 -95 0
-460 -96 0
-461 -81 0
-461 -82 0
-461 -83 19 0
-461 83 -19 0
-461 -84 20 0
-461 84 -20 0
-461 -85 0
-461 -86 0
-461 -87 23 0
-461 87 -23 0
-461 -88 24 0
-461 88 -24 0
-461 -89 0
-461 -90 0
-461 -91 27 0
-461 91 -27 0
-461 -92 28 0
-461 92 -28 0
-461 -93 0
-461 -94 0
-461 -95 31 0
-461 95 -31 0
-461 -96 32 0
-461 96 -32 0
-462 -81 0
-462 -82 0
-462 -83 -19 0
-462 83 19 0
-462 -84 -20 0
-462 84 20 0
-462 -85 0
-462 -86 0
-462 -87 -23 0
-462 87 23 0
-462 -88 -24 0
-462 88 24 0
-462 -89 0
-462 -90 0
-462 -91 -27 0
-462 91 27 0
-462 -92 -28 0
-462 92 28 0
-462 -93 0
-462 -94 0
-462 -95 -31 0
-462 95 31 0
-462 -96 -32 0
-462 96 32 0
-463 -81 17 0
-463 81 -17 0
-463 -82 18 0
-463 82 -18 0
-463 -83 0
-463 -84 0
-463 -85 21 0
-463 85 -21 0
-463 -86 22 0
-463 86 -22 0
-463 -87 0
-463 -88 0
-463 -89 25 0
-463 89 -25 0
-463 -90 26 0
-463 90 -26 0
-463 -91 0
-463 -92 0
-463 -93 29 0
-463 93 -29 0
-463 -94 30 0
-463 94 -30 0
-463 -95 0
-463 -96 0
-464 -81 -17 0
-464 81 17 0
-464 -82 -18 0
-464 82 18 0
-464 -83 0
-464 -84 0
-464 -85 -21 0
-464 85 21 0
-464 -86 -22 0
-464 86 22 0
-464 -87 0
-464 -88 0
-464 -89 -25 0
-464 89 25 0
-464 -90 -26 0
-464 90 26 0
-464 -91 0
-464 -92 0
-464 -93 -29 0
-464 93 29 0
-464 -94 -30 0
-464 94 30 0
-464 -95 0
-464 -96 0
-465 -81 0
-465 -82 0
-465 -83 35 0
-465 83 -35 0
-465 -84 36 0
-465 84 -36 0
-465 -85 0
-465 -86 0
-465 -87 39 0
-465 87 -39 0
-465 -88 40 0
-465 88 -40 0
-465 -89 0
-465 -90 0
-465 -91 43 0
-465 91 -43 0
-465 -92 44 0
-465 92 -44 0
-465 -93 0
-465 -94 0
-465 -95 47 0
-465 95 -47 0
-465 -96 48 0
-465 96 -48 0
-466 -81 0
-466 -82 0
-466 -83 -35 0
-466 83 35 0
-466 -84 -36 0
-466 84 36 0
-466 -85 0
-466 -86 0
-466 -87 -39 0
-466 87 39 0
-466 -88 -40 0
-466 88 40 0
-466 -89 0
-466 -90 0
-466 -91 -43 0
-466 91 43 0
-466 -92 -44 0
-466 92 44 0
-466 -93 0
-466 -94 0
-466 -95 -47 0
-466 95 47 0
-466 -96 -48 0
-466 96 48 0
-467 -81 33 0
-467 81 -33 0
-467 -82 34 0
-467 82 -34 0
-467 -83 0
-467 -84 0
-467 -85 37 0
-467 85 -37 0
-467 -86 38 0
-467 86 -38 0
-467 -87 0
-467 -88 0
-467 -89 41 0
-467 89 -41 0
-467 -90 42 0
-467 90 -42 0
-467 -91 0
-467 -92 0
-467 -93 45 0
-467 93 -45 0
-467 -94 46 0
-467 94 -46 0
-467 -95 0
-467 -96 0
-468 -81 -33 0
-468 81 33 0
-468 -82 -34 0
-468 82 34 0
-468 -83 0
-468 -84 0
-468 -85 -37 0
-468 85 37 0
-468 -86 -38 0
-468 86 38 0
-468 -87 0
-468 -88 0
-468 -89 -41 0
-468 89 41 0
-468 -90 -42 0
-468 90 42 0
-468 -91 0
-468 -92 0
-468 -93 -45 0
-468 93 45 0
-468 -94 -46 0
-468 94 46 0
-468 -95 0
-468 -96 0
-469 -81 0
-469 -82 0
-469 -83 51 0
-469 83 -51 0
-469 -84 52 0
-469 84 -52 0
-469 -85 0
-469 -86 0
-469 -87 55 0
-469 87 -55 0
-469 -88 56 0
-469 88 -56 0
-469 -89 0
-469 -90 0
-469 -91 59 0
-469 91 -59 0
-469 -92 60 0
-469 92 -60 0
-469 -93 0
-469 -94 0
-469 -95 63 0
-469 95 -63 0
-469 -96 64 0
-469 96 -64 0
-470 -81 0
-470 -82 0
-470 -83 -51 0
-470 83 51 0
-470 -84 -52 0
-470 84 52 0
-470 -85 0
-470 -86 0
-470 -87 -55 0
-470 87 55 0
-470 -88 -56 0
-470 88 56 0
-470 -89 0
-470 -90 0
-470 -91 -59 0
-470 91 59 0
-470 -92 -60 0
-470 92 60 0
-470 -93 0
-470 -94 0
-470 -95 -63 0
-470 95 63 0
-470 -96 -64 0
-470 96 64 0
-471 -81 49 0
-471 81 -49 0
-471 -82 50 0
-471 82 -50 0
-471 -83 0
-471 -84 0
-471 -85 53 0
-471 85 -53 0
-471 -86 54 0
-471 86 -54 0
-471 -87 0
-471 -88 0
-471 -89 57 0
-471 89 -57 0
-471 -90 58 0
-471 90 -58 0
-471 -91 0
-471 -92 0
-471 -93 61 0
-471 93 -61 0
-471 -94 62 0
-471 94 -62 0
-471 -95 0
-471 -96 0
-472 -81 -49 0
-472 81 49 0
-472 -82 -50 0
-472 82 50 0
-472 -83 0
-472 -84 0
-472 -85 -53 0
-472 85 53 0
-472 -86 -54 0
-472 86 54 0
-472 -87 0
-472 -88 0
-472 -89 -57 0
-472 89 57 0
-472 -90 -58 0
-472 90 58 0
-472 -91 0
-472 -92 0
-472 -93 -61 0
-472 93 61 0
-472 -94 -62 0
-472 94 62 0
-472 -95 0
-472 -96 0
-473 -81 0
-473 -82 0
-473 -83 67 0
-473 83 -67 0
-473 -84 68 0
-473 84 -68 0
-473 -85 0
-473 -86 0
-473 -87 71 0
-473 87 -71 0
-473 -88 72 0
-473 88 -72 0
-473 -89 0
-473 -90 0
-473 -91 75 0
-473 91 -75 0
-473 -92 76 0
-473 92 -76 0
-473 -93 0
-473 -94 0
-473 -95 79 0
-473 95 -79 0
-473 -96 80 0
-473 96 -80 0
-474 -81 0
-474 -82 0
-474 -83 -67 0
-474 83 67 0
-474 -84 -68 0
-474 84 68 0
-474 -85 0
-474 -86 0
-474 -87 -71 0
-474 87 71 0
-474 -88 -72 0
-474 88 72 0
-474 -89 0
-474 -90 0
-474 -91 -75 0
-474 91 75 0
-474 -92 -76 0
-474 92 76 0
-474 -93 0
-474 -94 0
-474 -95 -79 0
-474 95 79 0
-474 -96 -80 0
-474 96 80 0
-475 -81 65 0
-475 81 -65 0
-475 -82 66 0
-475 82 -66 0
-475 -83 0
-475 -84 0
-475 -85 69 0
-475 85 -69 0
-475 -86 70 0
-475 86 -70 0
-475 -87 0
-475 -88 0
-475 -89 73 0
-475 89 -73 0
-475 -90 74 0
-475 90 -74 0
-475 -91 0
-475 -92 0
-475 -93 77 0
-475 93 -77 0
-475 -94 78 0
-475 94 -78 0
-475 -95 0
-475 -96 0
-476 -81 -65 0
-476 81 65 0
-476 -82 -66 0
-476 82 66 0
-476 -83 0
-476 -84 0
-476 -85 -69 0
-476 85 69 0
-476 -86 -70 0
-476 86 70 0
-476 -87 0
-476 -88 0
-476 -89 -73 0
-476 89 73 0
-476 -90 -74 0
-476 90 74 0
-476 -91 0
-476 -92 0
-476 -93 -77 0
-476 93 77 0
-476 -94 -78 0
-476 94 78 0
-476 -95 0
-476 -96 0
-477 -81 0
-477 -82 0
-477 -83 0
-477 -84 0
-477 -85 0
-477 -86 0
-477 -87 0
-477 -88 0
-477 -89 0
-477 -90 0
-477 -91 0
-477 -92 0
-477 93 0
-477 94 0
-477 95 0
-477 96 0
-478 -81 0
-478 -82 0
-478 -83 0
-478 -84 0
-478 85 0
-478 86 0
-478 87 0
-478 88 0
-478 -89 0
-478 -90 0
-478 -91 0
-478 -92 0
-478 -93 0
-478 -94 0
-478 -95 0
-478 -96 0
-479 -81 0
-479 -82 0
-479 -83 0
-479 -84 0
-479 -85 0
-479 -86 0
-479 -87 0
-479 -88 0
-479 89 0
-479 90 0
-479 91 0
-479 92 0
-479 -93 0
-479 -94 0
-479 -95 0
-479 -96 0
-480 81 0
-480 82 0
-480 83 0
-480 84 0
-480 -85 0
-480 -86 0
-480 -87 0
-480 -88 0
-480 -89 0
-480 -90 0
-480 -91 0
-480 -92 0
-480 -93 0
-480 -94 0
-480 -95 0
-480 -96 0
-481 -81 0
-481 -82 0
-481 -83 0
-481 -84 0
-481 -85 5 0
-481 85 -5 0
-481 -86 6 0
-481 86 -6 0
-481 -87 7 0
-481 87 -7 0
-481 -88 8 0
-481 88 -8 0
-481 -89 0
-481 -90 0
-481 -91 0
-481 -92 0
-481 -93 13 0
-481 93 -13 0
-481 -94 14 0
-481 94 -14 0
-481 -95 15 0
-481 95 -15 0
-481 -96 16 0
-481 96 -16 0
-482 -81 0
-482 -82 0
-482 -83 0
-482 -84 0
-482 -85 -5 0
-482 85 5 0
-482 -86 -6 0
-482 86 6 0
-482 -87 -7 0
-482 87 7 0
-482 -88 -8 0
-482 88 8 0
-482 -89 0
-482 -90 0
-482 -91 0
-482 -92 0
-482 -93 -13 0
-482 93 13 0
-482 -94 -14 0
-482 94 14 0
-482 -95 -15 0
-482 95 15 0
-482 -96 -16 0
-482 96 16 0
-483 -81 1 0
-483 81 -1 0
-483 -82 2 0
-483 82 -2 0
-483 -83 3 0
-483 83 -3 0
-483 -84 4 0
-483 84 -4 0
-483 -85 0
-483 -86 0
-483 -87 0
-483 -88 0
-483 -89 9 0
-483 89 -9 0
-483 -90 10 0
-483 90 -10 0
-483 -91 11 0
-483 91 -11 0
-483 -92 12 0
-483 92 -12 0
-483 -93 0
-483 -94 0
-483 -95 0
-483 -96 0
-484 -81 -1 0
-484 81 1 0
-484 -82 -2 0
-484 82 2 0
-484 -83 -3 0
-484 83 3 0
-484 -84 -4 0
-484 84 4 0
-484 -85 0
-484 -86 0
-484 -87 0
-484 -88 0
-484 -89 -9 0
-484 89 9 0
-484 -90 -10 0
-484 90 10 0
-484 -91 -11 0
-484 91 11 0
-484 -92 -12 0
-484 92 12 0
-484 -93 0
-484 -94 0
-484 -95 0
-484 -96 0
-485 -81 0
-485 -82 0
-485 -83 0
-485 -84 0
-485 -85 21 0
-485 85 -21 0
-485 -86 22 0
-485 86 -22 0
-485 -87 23 0
-485 87 -23 0
-485 -88 24 0
-485 88 -24 0
-485 -89 0
-485 -90 0
-485 -91 0
-485 -92 0
-485 -93 29 0
-485 93 -29 0
-485 -94 30 0
-485 94 -30 0
-485 -95 31 0
-485 95 -31 0
-485 -96 32 0
-485 96 -32 0
-486 -81 0
-486 -82 0
-486 -83 0
-486 -84 0
-486 -85 -21 0
-486 85 21 0
-486 -86 -22 0
-486 86 22 0
-486 -87 -23 0
-486 87 23 0
-486 -88 -24 0
-486 88 24 0
-486 -89 0
-486 -90 0
-486 -91 0
-486 -92 0
-486 -93 -29 0
-486 93 29 0
-486 -94 -30 0
-486 94 30 0
-486 -95 -31 0
-486 95 31 0
-486 -96 -32 0
-486 96 32 0
-487 -81 17 0
-487 81 -17 0
-487 -82 18 0
-487 82 -18 0
-487 -83 19 0
-487 83 -19 0
-487 -84 20 0
-487 84 -20 0
-487 -85 0
-487 -86 0
-487 -87 0
-487 -88 0
-487 -89 25 0
-487 89 -25 0
-487 -90 26 0
-487 90 -26 0
-487 -91 27 0
-487 91 -27 0
-487 -92 28 0
-487 92 -28 0
-487 -93 0
-487 -94 0
-487 -95 0
-487 -96 0
-488 -81 -17 0
-488 81 17 0
-488 -82 -18 0
-488 82 18 0
-488 -83 -19 0
-488 83 19 0
-488 -84 -20 0
-488 84 20 0
-488 -85 0
-488 -86 0
-488 -87 0
-488 -88 0
-488 -89 -25 0
-488 89 25 0
-488 -90 -26 0
-488 90 26 0
-488 -91 -27 0
-488 91 27 0
-488 -92 -28 0
-488 92 28 0
-488 -93 0
-488 -94 0
-488 -95 0
-488 -96 0
-489 -81 0
-489 -82 0
-489 -83 0
-489 -84 0
-489 -85 37 0
-489 85 -37 0
-489 -86 38 0
-489 86 -38 0
-489 -87 39 0
-489 87 -39 0
-489 -88 40 0
-489 88 -40 0
-489 -89 0
-489 -90 0
-489 -91 0
-489 -92 0
-489 -93 45 0
-489 93 -45 0
-489 -94 46 0
-489 94 -46 0
-489 -95 47 0
-489 95 -47 0
-489 -96 48 0
-489 96 -48 0
-490 -81 0
-490 -82 0
-490 -83 0
-490 -84 0
-490 -85 -37 0
-490 85 37 0
-490 -86 -38 0
-490 86 38 0
-490 -87 -39 0
-490 87 39 0
-490 -88 -40 0
-490 88 40 0
-490 -89 0
-490 -90 0
-490 -91 0
-490 -92 0
-490 -93 -45 0
-490 93 45 0
-490 -94 -46 0
-490 94 46 0
-490 -95 -47 0
-490 95 47 0
-490 -96 -48 0
-490 96 48 0
-491 -81 33 0
-491 81 -33 0
-491 -82 34 0
-491 82 -34 0
-491 -83 35 0
-491 83 -35 0
-491 -84 36 0
-491 84 -36 0
-491 -85 0
-491 -86 0
-491 -87 0
-491 -88 0
-491 -89 41 0
-491 89 -41 0
-491 -90 42 0
-491 90 -42 0
-491 -91 43 0
-491 91 -43 0
-491 -92 44 0
-491 92 -44 0
-491 -93 0
-491 -94 0
-491 -95 0
-491 -96 0
-492 -81 -33 0
-492 81 33 0
-492 -82 -34 0
-492 82 34 0
-492 -83 -35 0
-492 83 35 0
-492 -84 -36 0
-492 84 36 0
-492 -85 0
-492 -86 0
-492 -87 0
-492 -88 0
-492 -89 -41 0
-492 89 41 0
-492 -90 -42 0
-492 90 42 0
-492 -91 -43 0
-492 91 43 0
-492 -92 -44 0
-492 92 44 0
-492 -93 0
-492 -94 0
-492 -95 0
-492 -96 0
-493 -81 0
-493 -82 0
-493 -83 0
-493 -84 0
-493 -85 53 0
-493 85 -53 0
-493 -86 54 0
-493 86 -54 0
-493 -87 55 0
-493 87 -55 0
-493 -88 56 0
-493 88 -56 0
-493 -89 0
-493 -90 0
-493 -91 0
-493 -92 0
-493 -93 61 0
-493 93 -61 0
-493 -94 62 0
-493 94 -62 0
-493 -95 63 0
-493 95 -63 0
-493 -96 64 0
-493 96 -64 0
-494 -81 0
-494 -82 0
-494 -83 0
-494 -84 0
-494 -85 -53 0
-494 85 53 0
-494 -86 -54 0
-494 86 54 0
-494 -87 -55 0
-494 87 55 0
-494 -88 -56 0
-494 88 56 0
-494 -89 0
-494 -90 0
-494 -91 0
-494 -92 0
-494 -93 -61 0
-494 93 61 0
-494 -94 -62 0
-494 94 62 0
-494 -95 -63 0
-494 95 63 0
-494 -96 -64 0
-494 96 64 0
-495 -81 49 0
-495 81 -49 0
-495 -82 50 0
-495 82 -50 0
-495 -83 51 0
-495 83 -51 0
-495 -84 52 0
-495 84 -52 0
-495 -85 0
-495 -86 0
-495 -87 0
-495 -88 0
-495 -89 57 0
-495 89 -57 0
-495 -90 58 0
-495 90 -58 0
-495 -91 59 0
-495 91 -59 0
-495 -92 60 0
-495 92 -60 0
-495 -93 0
-495 -94 0
-495 -95 0
-495 -96 0
-496 -81 -49 0
-496 81 49 0
-496 -82 -50 0
-496 82 50 0
-496 -83 -51 0
-496 83 51 0
-496 -84 -52 0
-496 84 52 0
-496 -85 0
-496 -86 0
-496 -87 0
-496 -88 0
-496 -89 -57 0
-496 89 57 0
-496 -90 -58 0
-496 90 58 0
-496 -91 -59 0
-496 91 59 0
-496 -92 -60 0
-496 92 60 0
-496 -93 0
-496 -94 0
-496 -95 0
-496 -96 0
-497 -81 0
-497 -82 0
-497 -83 0
-497 -84 0
-497 -85 69 0
-497 85 -69 0
-497 -86 70 0
-497 86 -70 0
-497 -87 71 0
-497 87 -71 0
-497 -88 72 0
-497 88 -72 0
-497 -89 0
-497 -90 0
-497 -91 0
-497 -92 0
-497 -93 77 0
-497 93 -77 0
-497 -94 78 0
-497 94 -78 0
-497 -95 79 0
-497 95 -79 0
-497 -96 80 0
-497 96 -80 0
-498 -81 0
-498 -82 0
-498 -83 0
-498 -84 0
-498 -85 -69 0
-498 85 69 0
-498 -86 -70 0
-498 86 70 0
-498 -87 -71 0
-498 87 71 0
-498 -88 -72 0
-498 88 72 0
-498 -89 0
-498 -90 0
-498 -91 0
-498 -92 0
-498 -93 -77 0
-498 93 77 0
-498 -94 -78 0
-498 94 78 0
-498 -95 -79 0
-498 95 79 0
-498 -96 -80 0
-498 96 80 0
-499 -81 65 0
-499 81 -65 0
-499 -82 66 0
-499 82 -66 0
-499 -83 67 0
-499 83 -67 0
-499 -84 68 0
-499 84 -68 0
-499 -85 0
-499 -86 0
-499 -87 0
-499 -88 0
-499 -89 73 0
-499 89 -73 0
-499 -90 74 0
-499 90 -74 0
-499 -91 75 0
-499 91 -75 0
-499 -92 76 0
-499 92 -76 0
-499 -93 0
-499 -94 0
-499 -95 0
-499 -96 0
-500 -81 -65 0
-500 81 65 0
-500 -82 -66 0
-500 82 66 0
-500 -83 -67 0
-500 83 67 0
-500 -84 -68 0
-500 84 68 0
-500 -85 0
-500 -86 0
-500 -87 0
-500 -88 0
-500 -89 -73 0
-500 89 73 0
-500 -90 -74 0
-500 90 74 0
-500 -91 -75 0
-500 91 75 0
-500 -92 -76 0
-500 92 76 0
-500 -93 0
-500 -94 0
-500 -95 0
-500 -96 0
-501 -81 0
-501 -82 0
-501 -83 0
-501 -84 0
-501 -85 0
-501 -86 0
-501 -87 0
-501 -88 0
-501 -89 9 0
-501 89 -9 0
-501 -90 10 0
-501 90 -10 0
-501 -91 11 0
-501 91 -11 0
-501 -92 12 0
-501 92 -12 0
-501 -93 13 0
-501 93 -13 0
-501 -94 14 0
-501 94 -14 0
-501 -95 15 0
-501 95 -15 0
-501 -96 16 0
-501 96 -16 0
-502 -81 0
-502 -82 0
-502 -83 0
-502 -84 0
-502 -85 0
-502 -86 0
-502 -87 0
-502 -88 0
-502 -89 -9 0
-502 89 9 0
-502 -90 -10 0
-502 90 10 0
-502 -91 -11 0
-502 91 11 0
-502 -92 -12 0
-502 92 12 0
-502 -93 -13 0
-502 93 13 0
-502 -94 -14 0
-502 94 14 0
-502 -95 -15 0
-502 95 15 0
-502 -96 -16 0
-502 96 16 0
-503 -81 1 0
-503 81 -1 0
-503 -82 2 0
-503 82 -2 0
-503 -83 3 0
-503 83 -3 0
-503 -84 4 0
-503 84 -4 0
-503 -85 5 0
-503 85 -5 0
-503 -86 6 0
-503 86 -6 0
-503 -87 7 0
-503 87 -7 0
-503 -88 8 0
-503 88 -8 0
-503 -89 0
-503 -90 0
-503 -91 0
-503 -92 0
-503 -93 0
-503 -94 0
-503 -95 0
-503 -96 0
-504 -81 -1 0
-504 81 1 0
-504 -82 -2 0
-504 82 2 0
-504 -83 -3 0
-504 83 3 0
-504 -84 -4 0
-504 84 4 0
-504 -85 -5 0
-504 85 5 0
-504 -86 -6 0
-504 86 6 0
-504 -87 -7 0
-504 87 7 0
-504 -88 -8 0
-504 88 8 0
-504 -89 0
-504 -90 0
-504 -91 0
-504 -92 0
-504 -93 0
-504 -94 0
-504 -95 0
-504 -96 0
-505 -81 0
-505 -82 0
-505 -83 0
-505 -84 0
-505 -85 0
-505 -86 0
-505 -87 0
-505 -88 0
-505 -89 25 0
-505 89 -25 0
-505 -90 26 0
-505 90 -26 0
-505 -91 27 0
-505 91 -27 0
-505 -92 28 0
-505 92 -28 0
-505 -93 29 0
-505 93 -29 0
-505 -94 30 0
-505 94 -30 0
-505 -95 31 0
-505 95 -31 0
-505 -96 32 0
-505 96 -32 0
-506 -81 0
-506 -82 0
-506 -83 0
-506 -84 0
-506 -85 0
-506 -86 0
-506 -87 0
-506 -88 0
-506 -89 -25 0
-506 89 25 0
-506 -90 -26 0
-506 90 26 0
-506 -91 -27 0
-506 91 27 0
-506 -92 -28 0
-506 92 28 0
-506 -93 -29 0
-506 93 29 0
-506 -94 -30 0
-506 94 30 0
-506 -95 -31 0
-506 95 31 0
-506 -96 -32 0
-506 96 32 0
-507 -81 17 0
-507 81 -17 0
-507 -82 18 0
-507 82 -18 0
-507 -83 19 0
-507 83 -19 0
-507 -84 20 0
-507 84 -20 0
-507 -85 21 0
-507 85 -21 0
-507 -86 22 0
-507 86 -22 0
-507 -87 23 0
-507 87 -23 0
-507 -88 24 0
-507 88 -24 0
-507 -89 0
-507 -90 0
-507 -91 0
-507 -92 0
-507 -93 0
-507 -94 0
-507 -95 0
-507 -96 0
-508 -81 -17 0
-508 81 17 0
-508 -82 -18 0
-508 82 18 0
-508 -83 -19 0
-508 83 19 0
-508 -84 -20 0
-508 84 20 0
-508 -85 -21 0
-508 85 21 0
-508 -86 -22 0
-508 86 22 0
-508 -87 -23 0
-508 87 23 0
-508 -88 -24 0
-508 88 24 0
-508 -89 0
-508 -90 0
-508 -91 0
-508 -92 0
-508 -93 0
-508 -94 0
-508 -95 0
-508 -96 0
-509 -81 0
-509 -82 0
-509 -83 0
-509 -84 0
-509 -85 0
-509 -86 0
-509 -87 0
-509 -88 0
-509 -89 41 0
-509 89 -41 0
-509 -90 42 0
-509 90 -42 0
-509 -91 43 0
-509 91 -43 0
-509 -92 44 0
-509 92 -44 0
-509 -93 45 0
-509 93 -45 0
-509 -94 46 0
-509 94 -46 0
-509 -95 47 0
-509 95 -47 0
-509 -96 48 0
-509 96 -48 0
-510 -81 0
-510 -82 0
-510 -83 0
-510 -84 0
-510 -85 0
-510 -86 0
-510 -87 0
-510 -88 0
-510 -89 -41 0
-510 89 41 0
-510 -90 -42 0
-510 90 42 0
-510 -91 -43 0
-510 91 43 0
-510 -92 -44 0
-510 92 44 0
-510 -93 -45 0
-510 93 45 0
-510 -94 -46 0
-510 94 46 0
-510 -95 -47 0
-510 95 47 0
-510 -96 -48 0
-510 96 48 0
-511 -81 33 0
-511 81 -33 0
-511 -82 34 0
-511 82 -34 0
-511 -83 35 0
-511 83 -35 0
-511 -84 36 0
-511 84 -36 0
-511 -85 37 0
-511 85 -37 0
-511 -86 38 0
-511 86 -38 0
-511 -87 39 0
-511 87 -39 0
-511 -88 40 0
-511 88 -40 0
-511 -89 0
-511 -90 0
-511 -91 0
-511 -92 0
-511 -93 0
-511 -94 0
-511 -95 0
-511 -96 0
-512 -81 -33 0
-512 81 33 0
-512 -82 -34 0
-512 82 34 0
-512 -83 -35 0
-512 83 35 0
-512 -84 -36 0
-512 84 36 0
-512 -85 -37 0
-512 85 37 0
-512 -86 -38 0
-512 86 38 0
-512 -87 -39 0
-512 87 39 0
-512 -88 -40 0
-512 88 40 0
-512 -89 0
-512 -90 0
-512 -91 0
-512 -92 0
-512 -93 0
-512 -94 0
-512 -95 0
-512 -96 0
-513 -81 0
-513 -82 0
-513 -83 0
-513 -84 0
-513 -85 0
-513 -86 0
-513 -87 0
-513 -88 0
-513 -89 57 0
-513 89 -57 0
-513 -90 58 0
-513 90 -58 0
-513 -91 59 0
-513 91 -59 0
-513 -92 60 0
-513 92 -60 0
-513 -93 61 0
-513 93 -61 0
-513 -94 62 0
-513 94 -62 0
-513 -95 63 0
-513 95 -63 0
-513 -96 64 0
-513 96 -64 0
-514 -81 0
-514 -82 0
-514 -83 0
-514 -84 0
-514 -85 0
-514 -86 0
-514 -87 0
-514 -88 0
-514 -89 -57 0
-514 89 57 0
-514 -90 -58 0
-514 90 58 0
-514 -91 -59 0
-514 91 59 0
-514 -92 -60 0
-514 92 60 0
-514 -93 -61 0
-514 93 61 0
-514 -94 -62 0
-514 94 62 0
-514 -95 -63 0
-514 95 63 0
-514 -96 -64 0
-514 96 64 0
-515 -81 49 0
-515 81 -49 0
-515 -82 50 0
-515 82 -50 0
-515 -83 51 0
-515 83 -51 0
-515 -84 52 0
-515 84 -52 0
-515 -85 53 0
-515 85 -53 0
-515 -86 54 0
-515 86 -54 0
-515 -87 55 0
-515 87 -55 0
-515 -88 56 0
-515 88 -56 0
-515 -89 0
-515 -90 0
-515 -91 0
-515 -92 0
-515 -93 0
-515 -94 0
-515 -95 0
-515 -96 0
-516 -81 -49 0
-516 81 49 0
-516 -82 -50 0
-516 82 50 0
-516 -83 -51 0
-516 83 51 0
-516 -84 -52 0
-516 84 52 0
-516 -85 -53 0
-516 85 53 0
-516 -86 -54 0
-516 86 54 0
-516 -87 -55 0
-516 87 55 0
-516 -88 -56 0
-516 88 56 0
-516 -89 0
-516 -90 0
-516 -91 0
-516 -92 0
-516 -93 0
-516 -94 0
-516 -95 0
-516 -96 0
-517 -81 0
-517 -82 0
-517 -83 0
-517 -84 0
-517 -85 0
-517 -86 0
-517 -87 0
-517 -88 0
-517 -89 73 0
-517 89 -73 0
-517 -90 74 0
-517 90 -74 0
-517 -91 75 0
-517 91 -75 0
-517 -92 76 0
-517 92 -76 0
-517 -93 77 0
-517 93 -77 0
-517 -94 78 0
-517 94 -78 0
-517 -95 79 0
-517 95 -79 0
-517 -96 80 0
-517 96 -80 0
-518 -81 0
-518 -82 0
-518 -83 0
-518 -84 0
-518 -85 0
-518 -86 0
-518 -87 0
-518 -88 0
-518 -89 -73 0
-518 89 73 0
-518 -90 -74 0
-518 90 74 0
-518 -91 -75 0
-518 91 75 0
-518 -92 -76 0
-518 92 76 0
-518 -93 -77 0
-518 93 77 0
-518 -94 -78 0
-518 94 78 0
-518 -95 -79 0
-518 95 79 0
-518 -96 -80 0
-518 96 80 0
-519 -81 65 0
-519 81 -65 0
-519 -82 66 0
-519 82 -66 0
-519 -83 67 0
-519 83 -67 0
-519 -84 68 0
-519 84 -68 0
-519 -85 69 0
-519 85 -69 0
-519 -86 70 0
-519 86 -70 0
-519 -87 71 0
-519 87 -71 0
-519 -88 72 0
-519 88 -72 0
-519 -89 0
-519 -90 0
-519 -91 0
-519 -92 0
-519 -93 0
-519 -94 0
-519 -95 0
-519 -96 0
-520 -81 -65 0
-520 81 65 0
-520 -82 -66 0
-520 82 66 0
-520 -83 -67 0
-520 83 67 0
-520 -84 -68 0
-520 84 68 0
-520 -85 -69 0
-520 85 69 0
-520 -86 -70 0
-520 86 70 0
-520 -87 -71 0
-520 87 71 0
-520 -88 -72 0
-520 88 72 0
-520 -89 0
-520 -90 0
-520 -91 0
-520 -92 0
-520 -93 0
-520 -94 0
-520 -95 0
-520 -96 0
-521 -81 1 0
-521 -81 17 0
-521 81 -1 -17 0
-521 -82 2 0
-521 -82 18 0
-521 82 -2 -18 0
-521 -83 3 0
-521 -83 19 0
-521 83 -3 -19 0
-521 -84 4 0
-521 -84 20 0
-521 84 -4 -20 0
-521 -85 5 0
-521 -85 21 0
-521 85 -5 -21 0
-521 -86 6 0
-521 -86 22 0
-521 86 -6 -22 0
-521 -87 7 0
-521 -87 23 0
-521 87 -7 -23 0
-521 -88 8 0
-521 -88 24 0
-521 88 -8 -24 0
-521 -89 9 0
-521 -89 25 0
-521 89 -9 -25 0
-521 -90 10 0
-521 -90 26 0
-521 90 -10 -26 0
-521 -91 11 0
-521 -91 27 0
-521 91 -11 -27 0
-521 -92 12 0
-521 -92 28 0
-521 92 -12 -28 0
-521 -93 13 0
-521 -93 29 0
-521 93 -13 -29 0
-521 -94 14 0
-521 -94 30 0
-521 94 -14 -30 0
-521 -95 15 0
-521 -95 31 0
-521 95 -15 -31 0
-521 -96 16 0
-521 -96 32 0
-521 96 -16 -32 0
-522 -81 1 0
-522 -81 -17 0
-522 81 -1 17 0
-522 -82 2 0
-522 -82 -18 0
-522 82 -2 18 0
-522 -83 3 0
-522 -83 -19 0
-522 83 -3 19 0
-522 -84 4 0
-522 -84 -20 0
-522 84 -4 20 0
-522 -85 5 0
-522 -85 -21 0
-522 85 -5 21 0
-522 -86 6 0
-522 -86 -22 0
-522 86 -6 22 0
-522 -87 7 0
-522 -87 -23 0
-522 87 -7 23 0
-522 -88 8 0
-522 -88 -24 0
-522 88 -8 24 0
-522 -89 9 0
-522 -89 -25 0
-522 89 -9 25 0
-522 -90 10 0
-522 -90 -26 0
-522 90 -10 26 0
-522 -91 11 0
-522 -91 -27 0
-522 91 -11 27 0
-522 -92 12 0
-522 -92 -28 0
-522 92 -12 28 0
-522 -93 13 0
-522 -93 -29 0
-522 93 -13 29 0
-522 -94 14 0
-522 -94 -30 0
-522 94 -14 30 0
-522 -95 15 0
-522 -95 -31 0
-522 95 -15 31 0
-522 -96 16 0
-522 -96 -32 0
-522 96 -16 32 0
-523 -81 -1 0
-523 -81 17 0
-523 81 1 -17 0
-523 -82 -2 0
-523 -82 18 0
-523 82 2 -18 0
-523 -83 -3 0
-523 -83 19 0
-523 83 3 -19 0
-523 -84 -4 0
-523 -84 20 0
-523 84 4 -20 0
-523 -85 -5 0
-523 -85 21 0
-523 85 5 -21 0
-523 -86 -6 0
-523 -86 22 0
-523 86 6 -22 0
-523 -87 -7 0
-523 -87 23 0
-523 87 7 -23 0
-523 -88 -8 0
-523 -88 24 0
-523 88 8 -24 0
-523 -89 -9 0
-523 -89 25 0
-523 89 9 -25 0
-523 -90 -10 0
-523 -90 26 0
-523 90 10 -26 0
-523 -91 -11 0
-523 -91 27 0
-523 91 11 -27 0
-523 -92 -12 0
-523 -92 28 0
-523 92 12 -28 0
-523 -93 -13 0
-523 -93 29 0
-523 93 13 -29 0
-523 -94 -14 0
-523 -94 30 0
-523 94 14 -30 0
-523 -95 -15 0
-523 -95 31 0
-523 95 15 -31 0
-523 -96 -16 0
-523 -96 32 0
-523 96 16 -32 0
-524 -81 -1 0
-524 -81 -17 0
-524 81 1 17 0
-524 -82 -2 0
-524 -82 -18 0
-524 82 2 18 0
-524 -83 -3 0
-524 -83 -19 0
-524 83 3 19 0
-524 -84 -4 0
-524 -84 -20 0
-524 84 4 20 0
-524 -85 -5 0
-524 -85 -21 0
-524 85 5 21 0
-524 -86 -6 0
-524 -86 -22 0
-524 86 6 22 0
-524 -87 -7 0
-524 -87 -23 0
-524 87 7 23 0
-524 -88 -8 0
-524 -88 -24 0
-524 88 8 24 0
-524 -89 -9 0
-524 -89 -25 0
-524 89 9 25 0
-524 -90 -10 0
-524 -90 -26 0
-524 90 10 26 0
-524 -91 -11 0
-524 -91 -27 0
-524 91 11 27 0
-524 -92 -12 0
-524 -92 -28 0
-524 92 12 28 0
-524 -93 -13 0
-524 -93 -29 0
-524 93 13 29 0
-524 -94 -14 0
-524 -94 -30 0
-524 94 14 30 0
-524 -95 -15 0
-524 -95 -31 0
-524 95 15 31 0
-524 -96 -16 0
-524 -96 -32 0
-524 96 16 32 0
-525 -81 1 0
-525 -81 33 0
-525 81 -1 -33 0
-525 -82 2 0
-525 -82 34 0
-525 82 -2 -34 0
-525 -83 3 0
-525 -83 35 0
-525 83 -3 -35 0
-525 -84 4 0
-525 -84 36 0
-525 84 -4 -36 0
-525 -85 5 0
-525 -85 37 0
-525 85 -5 -37 0
-525 -86 6 0
-525 -86 38 0
-525 86 -6 -38 0
-525 -87 7 0
-525 -87 39 0
-525 87 -7 -39 0
-525 -88 8 0
-525 -88 40 0
-525 88 -8 -40 0
-525 -89 9 0
-525 -89 41 0
-525 89 -9 -41 0
-525 -90 10 0
-525 -90 42 0
-525 90 -10 -42 0
-525 -91 11 0
-525 -91 43 0
-525 91 -11 -43 0
-525 -92 12 0
-525 -92 44 0
-525 92 -12 -44 0
-525 -93 13 0
-525 -93 45 0
-525 93 -13 -45 0
-525 -94 14 0
-525 -94 46 0
-525 94 -14 -46 0
-525 -95 15 0
-525 -95 47 0
-525 95 -15 -47 0
-525 -96 16 0
-525 -96 48 0
-525 96 -16 -48 0
-526 -81 1 0
-526 -81 -33 0
-526 81 -1 33 0
-526 -82 2 0
-526 -82 -34 0
-526 82 -2 34 0
-526 -83 3 0
-526 -83 -35 0
-526 83 -3 35 0
-526 -84 4 0
-526 -84 -36 0
-526 84 -4 36 0
-526 -85 5 0
-526 -85 -37 0
-526 85 -5 37 0
-526 -86 6 0
-526 -86 -38 0
-526 86 -6 38 0
-526 -87 7 0
-526 -87 -39 0
-526 87 -7 39 0
-526 -88 8 0
-526 -88 -40 0
-526 88 -8 40 0
-526 -89 9 0
-526 -89 -41 0
-526 89 -9 41 0
-526 -90 10 0
-526 -90 -42 0
-526 90 -10 42 0
-526 -91 11 0
-526 -91 -43 0
-526 91 -11 43 0
-526 -92 12 0
-526 -92 -44 0
-526 92 -12 44 0
-526 -93 13 0
-526 -93 -45 0
-526 93 -13 45 0
-526 -94 14 0
-526 -94 -46 0
-526 94 -14 46 0
-526 -95 15 0
-526 -95 -47 0
-526 95 -15 47 0
-526 -96 16 0
-526 -96 -48 0
-526 96 -16 48 0
-527 -81 -1 0
-527 -81 33 0
-527 81 1 -33 0
-527 -82 -2 0
-527 -82 34 0
-527 82 2 -34 0
-527 -83 -3 0
-527 -83 35 0
-527 83 3 -35 0
-527 -84 -4 0
-527 -84 36 0
-527 84 4 -36 0
-527 -85 -5 0
-527 -85 37 0
-527 85 5 -37 0
-527 -86 -6 0
-527 -86 38 0
-527 86 6 -38 0
-527 -87 -7 0
-527 -87 39 0
-527 87 7 -39 0
-527 -88 -8 0
-527 -88 40 0
-527 88 8 -40 0
-527 -89 -9 0
-527 -89 41 0
-527 89 9 -41 0
-527 -90 -10 0
-527 -90 42 0
-527 90 10 -42 0
-527 -91 -11 0
-527 -91 43 0
-527 91 11 -43 0
-527 -92 -12 0
-527 -92 44 0
-527 92 12 -44 0
-527 -93 -13 0
-527 -93 45 0
-527 93 13 -45 0
-527 -94 -14 0
-527 -94 46 0
-527 94 14 -46 0
-527 -95 -15 0
-527 -95 47 0
-527 95 15 -47 0
-527 -96 -16 0
-527 -96 48 0
-527 96 16 -48 0
-528 -81 -1 0
-528 -81 -33 0
-528 81 1 33 0
-528 -82 -2 0
-528 -82 -34 0
-528 82 2 34 0
-528 -83 -3 0
-528 -83 -35 0
-528 83 3 35 0
-528 -84 -4 0
-528 -84 -36 0
-528 84 4 36 0
-528 -85 -5 0
-528 -85 -37 0
-528 85 5 37 0
-528 -86 -6 0
-528 -86 -38 0
-528 86 6 38 0
-528 -87 -7 0
-528 -87 -39 0
-528 87 7 39 0
-528 -88 -8 0
-528 -88 -40 0
-528 88 8 40 0
-528 -89 -9 0
-528 -89 -41 0
-528 89 9 41 0
-528 -90 -10 0
-528 -90 -42 0
-528 90 10 42 0
-528 -91 -11 0
-528 -91 -43 0
-528 91 11 43 0
-528 -92 -12 0
-528 -92 -44 0
-528 92 12 44 0
-528 -93 -13 0
-528 -93 -45 0
-528 93 13 45 0
-528 -94 -14 0
-528 -94 -46 0
-528 94 14 46 0
-528 -95 -15 0
-528 -95 -47 0
-528 95 15 47 0
-528 -96 -16 0
-528 -96 -48 0
-528 96 16 48 0
-529 -81 1 0
-529 -81 49 0
-529 81 -1 -49 0
-529 -82 2 0
-529 -82 50 0
-529 82 -2 -50 0
-529 -83 3 0
-529 -83 51 0
-529 83 -3 -51 0
-529 -84 4 0
-529 -84 52 0
-529 84 -4 -52 0
-529 -85 5 0
-529 -85 53 0
-529 85 -5 -53 0
-529 -86 6 0
-529 -86 54 0
-529 86 -6 -54 0
-529 -87 7 0
-529 -87 55 0
-529 87 -7 -55 0
-529 -88 8 0
-529 -88 56 0
-529 88 -8 -56 0
-529 -89 9 0
-529 -89 57 0
-529 89 -9 -57 0
-529 -90 10 0
-529 -90 58 0
-529 90 -10 -58 0
-529 -91 11 0
-529 -91 59 0
-529 91 -11 -59 0
-529 -92 12 0
-529 -92 60 0
-529 92 -12 -60 0
-529 -93 13 0
-529 -93 61 0
-529 93 -13 -61 0
-529 -94 14 0
-529 -94 62 0
-529 94 -14 -62 0
-529 -95 15 0
-529 -95 63 0
-529 95 -15 -63 0
-529 -96 16 0
-529 -96 64 0
-529 96 -16 -64 0
-530 -81 1 0
-530 -81 -49 0
-530 81 -1 49 0
-530 -82 2 0
-530 -82 -50 0
-530 82 -2 50 0
-530 -83 3 0
-530 -83 -51 0
-530 83 -3 51 0
-530 -84 4 0
-530 -84 -52 0
-530 84 -4 52 0
-530 -85 5 0
-530 -85 -53 0
-530 85 -5 53 0
-530 -86 6 0
-530 -86 -54 0
-530 86 -6 54 0
-530 -87 7 0
-530 -87 -55 0
-530 87 -7 55 0
-530 -88 8 0
-530 -88 -56 0
-530 88 -8 56 0
-530 -89 9 0
-530 -89 -57 0
-530 89 -9 57 0
-530 -90 10 0
-530 -90 -58 0
-530 90 -10 58 0
-530 -91 11 0
-530 -91 -59 0
-530 91 -11 59 0
-530 -92 12 0
-530 -92 -60 0
-530 92 -12 60 0
-530 -93 13 0
-530 -93 -61 0
-530 93 -13 61 0
-530 -94 14 0
-530 -94 -62 0
-530 94 -14 62 0
-530 -95 15 0
-530 -95 -63 0
-530 95 -15 63 0
-530 -96 16 0
-530 -96 -64 0
-530 96 -16 64 0
-531 -81 -1 0
-531 -81 49 0
-531 81 1 -49 0
-531 -82 -2 0
-531 -82 50 0
-531 82 2 -50 0
-531 -83 -3 0
-531 -83 51 0
-531 83 3 -51 0
-531 -84 -4 0
-531 -84 52 0
-531 84 4 -52 0
-531 -85 -5 0
-531 -85 53 0
-531 85 5 -53 0
-531 -86 -6 0
-531 -86 54 0
-531 86 6 -54 0
-531 -87 -7 0
-531 -87 55 0
-531 87 7 -55 0
-531 -88 -8 0
-531 -88 56 0
-531 88 8 -56 0
-531 -89 -9 0
-531 -89 57 0
-531 89 9 -57 0
-531 -90 -10 0
-531 -90 58 0
-531 90 10 -58 0
-531 -91 -11 0
-531 -91 59 0
-531 91 11 -59 0
-531 -92 -12 0
-531 -92 60 0
-531 92 12 -60 0
-531 -93 -13 0
-531 -93 61 0
-531 93 13 -61 0
-531 -94 -14 0
-531 -94 62 0
-531 94 14 -62 0
-531 -95 -15 0
-531 -95 63 0
-531 95 15 -63 0
-531 -96 -16 0
-531 -96 64 0
-531 96 16 -64 0
-532 -81 -1 0
-532 -81 -49 0
-532 81 1 49 0
-532 -82 -2 0
-532 -82 -50 0
-532 82 2 50 0
-532 -83 -3 0
-532 -83 -51 0
-532 83 3 51 0
-532 -84 -4 0
-532 -84 -52 0
-532 84 4 52 0
-532 -85 -5 0
-532 -85 -53 0
-532 85 5 53 0
-532 -86 -6 0
-532 -86 -54 0
-532 86 6 54 0
-532 -87 -7 0
-532 -87 -55 0
-532 87 7 55 0
-532 -88 -8 0
-532 -88 -56 0
-532 88 8 56 0
-532 -89 -9 0
-532 -89 -57 0
-532 89 9 57 0
-532 -90 -10 0
-532 -90 -58 0
-532 90 10 58 0
-532 -91 -11 0
-532 -91 -59 0
-532 91 11 59 0
-532 -92 -12 0
-532 -92 -60 0
-532 92 12 60 0
-532 -93 -13 0
-532 -93 -61 0
-532 93 13 61 0
-532 -94 -14 0
-532 -94 -62 0
-532 94 14 62 0
-532 -95 -15 0
-532 -95 -63 0
-532 95 15 63 0
-532 -96 -16 0
-532 -96 -64 0
-532 96 16 64 0
-533 -81 1 0
-533 -81 65 0
-533 81 -1 -65 0
-533 -82 2 0
-533 -82 66 0
-533 82 -2 -66 0
-533 -83 3 0
-533 -83 67 0
-533 83 -3 -67 0
-533 -84 4 0
-533 -84 68 0
-533 84 -4 -68 0
-533 -85 5 0
-533 -85 69 0
-533 85 -5 -69 0
-533 -86 6 0
-533 -86 70 0
-533 86 -6 -70 0
-533 -87 7 0
-533 -87 71 0
-533 87 -7 -71 0
-533 -88 8 0
-533 -88 72 0
-533 88 -8 -72 0
-533 -89 9 0
-533 -89 73 0
-533 89 -9 -73 0
-533 -90 10 0
-533 -90 74 0
-533 90 -10 -74 0
-533 -91 11 0
-533 -91 75 0
-533 91 -11 -75 0
-533 -92 12 0
-533 -92 76 0
-533 92 -12 -76 0
-533 -93 13 0
-533 -93 77 0
-533 93 -13 -77 0
-533 -94 14 0
-533 -94 78 0
-533 94 -14 -78 0
-533 -95 15 0
-533 -95 79 0
-533 95 -15 -79 0
-533 -96 16 0
-533 -96 80 0
-533 96 -16 -80 0
-534 -81 1 0
-534 -81 -65 0
-534 81 -1 65 0
-534 -82 2 0
-534 -82 -66 0
-534 82 -2 66 0
-534 -83 3 0
-534 -83 -67 0
-534 83 -3 67 0
-534 -84 4 0
-534 -84 -68 0
-534 84 -4 68 0
-534 -85 5 0
-534 -85 -69 0
-534 85 -5 69 0
-534 -86 6 0
-534 -86 -70 0
-534 86 -6 70 0
-534 -87 7 0
-534 -87 -71 0
-534 87 -7 71 0
-534 -88 8 0
-534 -88 -72 0
-534 88 -8 72 0
-534 -89 9 0
-534 -89 -73 0
-534 89 -9 73 0
-534 -90 10 0
-534 -90 -74 0
-534 90 -10 74 0
-534 -91 11 0
-534 -91 -75 0
-534 91 -11 75 0
-534 -92 12 0
-534 -92 -76 0
-534 92 -12 76 0
-534 -93 13 0
-534 -93 -77 0
-534 93 -13 77 0
-534 -94 14 0
-534 -94 -78 0
-534 94 -14 78 0
-534 -95 15 0
-534 -95 -79 0
-534 95 -15 79 0
-534 -96 16 0
-534 -96 -80 0
-534 96 -16 80 0
-535 -81 -1 0
-535 -81 65 0
-535 81 1 -65 0
-535 -82 -2 0
-535 -82 66 0
-535 82 2 -66 0
-535 -83 -3 0
-535 -83 67 0
-535 83 3 -67 0
-535 -84 -4 0
-535 -84 68 0
-535 84 4 -68 0
-535 -85 -5 0
-535 -85 69 0
-535 85 5 -69 0
-535 -86 -6 0
-535 -86 70 0
-535 86 6 -70 0
-535 -87 -7 0
-535 -87 71 0
-535 87 7 -71 0
-535 -88 -8 0
-535 -88 72 0
-535 88 8 -72 0
-535 -89 -9 0
-535 -89 73 0
-535 89 9 -73 0
-535 -90 -10 0
-535 -90 74 0
-535 90 10 -74 0
-535 -91 -11 0
-535 -91 75 0
-535 91 11 -75 0
-535 -92 -12 0
-535 -92 76 0
-535 92 12 -76 0
-535 -93 -13 0
-535 -93 77 0
-535 93 13 -77 0
-535 -94 -14 0
-535 -94 78 0
-535 94 14 -78 0
-535 -95 -15 0
-535 -95 79 0
-535 95 15 -79 0
-535 -96 -16 0
-535 -96 80 0
-535 96 16 -80 0
-536 -81 -1 0
-536 -81 -65 0
-536 81 1 65 0
-536 -82 -2 0
-536 -82 -66 0
-536 82 2 66 0
-536 -83 -3 0
-536 -83 -67 0
-536 83 3 67 0
-536 -84 -4 0
-536 -84 -68 0
-536 84 4 68 0
-536 -85 -5 0
-536 -85 -69 0
-536 85 5 69 0
-536 -86 -6 0
-536 -86 -70 0
-536 86 6 70 0
-536 -87 -7 0
-536 -87 -71 0
-536 87 7 71 0
-536 -88 -8 0
-536 -88 -72 0
-536 88 8 72 0
-536 -89 -9 0
-536 -89 -73 0
-536 89 9 73 0
-536 -90 -10 0
-536 -90 -74 0
-536 90 10 74 0
-536 -91 -11 0
-536 -91 -75 0
-536 91 11 75 0
-536 -92 -12 0
-536 -92 -76 0
-536 92 12 76 0
-536 -93 -13 0
-536 -93 -77 0
-536 93 13 77 0
-536 -94 -14 0
-536 -94 -78 0
-536 94 14 78 0
-536 -95 -15 0
-536 -95 -79 0
-536 95 15 79 0
-536 -96 -16 0
-536 -96 -80 0
-536 96 16 80 0
-537 -81 17 0
-537 -81 33 0
-537 81 -17 -33 0
-537 -82 18 0
-537 -82 34 0
-537 82 -18 -34 0
-537 -83 19 0
-537 -83 35 0
-537 83 -19 -35 0
-537 -84 20 0
-537 -84 36 0
-537 84 -20 -36 0
-537 -85 21 0
-537 -85 37 0
-537 85 -21 -37 0
-537 -86 22 0
-537 -86 38 0
-537 86 -22 -38 0
-537 -87 23 0
-537 -87 39 0
-537 87 -23 -39 0
-537 -88 24 0
-537 -88 40 0
-537 88 -24 -40 0
-537 -89 25 0
-537 -89 41 0
-537 89 -25 -41 0
-537 -90 26 0
-537 -90 42 0
-537 90 -26 -42 0
-537 -91 27 0
-537 -91 43 0
-537 91 -27 -43 0
-537 -92 28 0
-537 -92 44 0
-537 92 -28 -44 0
-537 -93 29 0
-537 -93 45 0
-537 93 -29 -45 0
-537 -94 30 0
-537 -94 46 0
-537 94 -30 -46 0
-537 -95 31 0
-537 -95 47 0
-537 95 -31 -47 0
-537 -96 32 0
-537 -96 48 0
-537 96 -32 -48 0
-538 -81 17 0
-538 -81 -33 0
-538 81 -17 33 0
-538 -82 18 0
-538 -82 -34 0
-538 82 -18 34 0
-538 -83 19 0
-538 -83 -35 0
-538 83 -19 35 0
-538 -84 20 0
-538 -84 -36 0
-538 84 -20 36 0
-538 -85 21 0
-538 -85 -37 0
-538 85 -21 37 0
-538 -86 22 0
-538 -86 -38 0
-538 86 -22 38 0
-538 -87 23 0
-538 -87 -39 0
-538 87 -23 39 0
-538 -88 24 0
-538 -88 -40 0
-538 88 -24 40 0
-538 -89 25 0
-538 -89 -41 0
-538 89 -25 41 0
-538 -90 26 0
-538 -90 -42 0
-538 90 -26 42 0
-538 -91 27 0
-538 -91 -43 0
-538 91 -27 43 0
-538 -92 28 0
-538 -92 -44 0
-538 92 -28 44 0
-538 -93 29 0
-538 -93 -45 0
-538 93 -29 45 0
-538 -94 30 0
-538 -94 -46 0
-538 94 -30 46 0
-538 -95 31 0
-538 -95 -47 0
-538 95 -31 47 0
-538 -96 32 0
-538 -96 -48 0
-538 96 -32 48 0
-539 -81 -17 0
-539 -81 33 0
-539 81 17 -33 0
-539 -82 -18 0
-539 -82 34 0
-539 82 18 -34 0
-539 -83 -19 0
-539 -83 35 0
-539 83 19 -35 0
-539 -84 -20 0
-539 -84 36 0
-539 84 20 -36 0
-539 -85 -21 0
-539 -85 37 0
-539 85 21 -37 0
-539 -86 -22 0
-539 -86 38 0
-539 86 22 -38 0
-539 -87 -23 0
-539 -87 39 0
-539 87 23 -39 0
-539 -88 -24 0
-539 -88 40 0
-539 88 24 -40 0
-539 -89 -25 0
-539 -89 41 0
-539 89 25 -41 0
-539 -90 -26 0
-539 -90 42 0
-539 90 26 -42 0
-539 -91 -27 0
-539 -91 43 0
-539 91 27 -43 0
-539 -92 -28 0
-539 -92 44 0
-539 92 28 -44 0
-539 -93 -29 0
-539 -93 45 0
-539 93 29 -45 0
-539 -94 -30 0
-539 -94 46 0
-539 94 30 -46 0
-539 -95 -31 0
-539 -95 47 0
-539 95 31 -47 0
-539 -96 -32 0
-539 -96 48 0
-539 96 32 -48 0
-540 -81 -17 0
-540 -81 -33 0
-540 81 17 33 0
-540 -82 -18 0
-540 -82 -34 0
-540 82 18 34 0
-540 -83 -19 0
-540 -83 -35 0
-540 83 19 35 0
-540 -84 -20 0
-540 -84 -36 0
-540 84 20 36 0
-540 -85 -21 0
-540 -85 -37 0
-540 85 21 37 0
-540 -86 -22 0
-540 -86 -38 0
-540 86 22 38 0
-540 -87 -23 0
-540 -87 -39 0
-540 87 23 39 0
-540 -88 -24 0
-540 -88 -40 0
-540 88 24 40 0
-540 -89 -25 0
-540 -89 -41 0
-540 89 25 41 0
-540 -90 -26 0
-540 -90 -42 0
-540 90 26 42 0
-540 -91 -27 0
-540 -91 -43 0
-540 91 27 43 0
-540 -92 -28 0
-540 -92 -44 0
-540 92 28 44 0
-540 -93 -29 0
-540 -93 -45 0
-540 93 29 45 0
-540 -94 -30 0
-540 -94 -46 0
-540 94 30 46 0
-540 -95 -31 0
-540 -95 -47 0
-540 95 31 47 0
-540 -96 -32 0
-540 -96 -48 0
-540 96 32 48 0
-541 -81 17 0
-541 -81 49 0
-541 81 -17 -49 0
-541 -82 18 0
-541 -82 50 0
-541 82 -18 -50 0
-541 -83 19 0
-541 -83 51 0
-541 83 -19 -51 0
-541 -84 20 0
-541 -84 52 0
-541 84 -20 -52 0
-541 -85 21 0
-541 -85 53 0
-541 85 -21 -53 0
-541 -86 22 0
-541 -86 54 0
-541 86 -22 -54 0
-541 -87 23 0
-541 -87 55 0
-541 87 -23 -55 0
-541 -88 24 0
-541 -88 56 0
-541 88 -24 -56 0
-541 -89 25 0
-541 -89 57 0
-541 89 -25 -57 0
-541 -90 26 0
-541 -90 58 0
-541 90 -26 -58 0
-541 -91 27 0
-541 -91 59 0
-541 91 -27 -59 0
-541 -92 28 0
-541 -92 60 0
-541 92 -28 -60 0
-541 -93 29 0
-541 -93 61 0
-541 93 -29 -61 0
-541 -94 30 0
-541 -94 62 0
-541 94 -30 -62 0
-541 -95 31 0
-541 -95 63 0
-541 95 -31 -63 0
-541 -96 32 0
-541 -96 64 0
-541 96 -32 -64 0
-542 -81 17 0
-542 -81 -49 0
-542 81 -17 49 0
-542 -82 18 0
-542 -82 -50 0
-542 82 -18 50 0
-542 -83 19 0
-542 -83 -51 0
-542 83 -19 51 0
-542 -84 20 0
-542 -84 -52 0
-542 84 -20 52 0
-542 -85 21 0
-542 -85 -53 0
-542 85 -21 53 0
-542 -86 22 0
-542 -86 -54 0
-542 86 -22 54 0
-542 -87 23 0
-542 -87 -55 0
-542 87 -23 55 0
-542 -88 24 0
-542 -88 -56 0
-542 88 -24 56 0
-542 -89 25 0
-542 -89 -57 0
-542 89 -25 57 0
-542 -90 26 0
-542 -90 -58 0
-542 90 -26 58 0
-542 -91 27 0
-542 -91 -59 0
-542 91 -27 59 0
-542 -92 28 0
-542 -92 -60 0
-542 92 -28 60 0
-542 -93 29 0
-542 -93 -61 0
-542 93 -29 61 0
-542 -94 30 0
-542 -94 -62 0
-542 94 -30 62 0
-542 -95 31 0
-542 -95 -63 0
-542 95 -31 63 0
-542 -96 32 0
-542 -96 -64 0
-542 96 -32 64 0
-543 -81 -17 0
-543 -81 49 0
-543 81 17 -49 0
-543 -82 -18 0
-543 -82 50 0
-543 82 18 -50 0
-543 -83 -19 0
-543 -83 51 0
-543 83 19 -51 0
-543 -84 -20 0
-543 -84 52 0
-543 84 20 -52 0
-543 -85 -21 0
-543 -85 53 0
-543 85 21 -53 0
-543 -86 -22 0
-543 -86 54 0
-543 86 22 -54 0
-543 -87 -23 0
-543 -87 55 0
-543 87 23 -55 0
-543 -88 -24 0
-543 -88 56 0
-543 88 24 -56 0
-543 -89 -25 0
-543 -89 57 0
-543 89 25 -57 0
-543 -90 -26 0
-543 -90 58 0
-543 90 26 -58 0
-543 -91 -27 0
-543 -91 59 0
-543 91 27 -59 0
-543 -92 -28 0
-543 -92 60 0
-543 92 28 -60 0
-543 -93 -29 0
-543 -93 61 0
-543 93 29 -61 0
-543 -94 -30 0
-543 -94 62 0
-543 94 30 -62 0
-543 -95 -31 0
-543 -95 63 0
-543 95 31 -63 0
-543 -96 -32 0
-543 -96 64 0
-543 96 32 -64 0
-544 -81 -17 0
-544 -81 -49 0
-544 81 17 49 0
-544 -82 -18 0
-544 -82 -50 0
-544 82 18 50 0
-544 -83 -19 0
-544 -83 -51 0
-544 83 19 51 0
-544 -84 -20 0
-544 -84 -52 0
-544 84 20 52 0
-544 -85 -21 0
-544 -85 -53 0
-544 85 21 53 0
-544 -86 -22 0
-544 -86 -54 0
-544 86 22 54 0
-544 -87 -23 0
-544 -87 -55 0
-544 87 23 55 0
-544 -88 -24 0
-544 -88 -56 0
-544 88 24 56 0
-544 -89 -25 0
-544 -89 -57 0
-544 89 25 57 0
-544 -90 -26 0
-544 -90 -58 0
-544 90 26 58 0
-544 -91 -27 0
-544 -91 -59 0
-544 91 27 59 0
-544 -92 -28 0
-544 -92 -60 0
-544 92 28 60 0
-544 -93 -29 0
-544 -93 -61 0
-544 93 29 61 0
-544 -94 -30 0
-544 -94 -62 0
-544 94 30 62 0
-544 -95 -31 0
-544 -95 -63 0
-544 95 31 63 0
-544 -96 -32 0
-544 -96 -64 0
-544 96 32 64 0
-545 -81 17 0
-545 -81 65 0
-545 81 -17 -65 0
-545 -82 18 0
-545 -82 66 0
-545 82 -18 -66 0
-545 -83 19 0
-545 -83 67 0
-545 83 -19 -67 0
-545 -84 20 0
-545 -84 68 0
-545 84 -20 -68 0
-545 -85 21 0
-545 -85 69 0
-545 85 -21 -69 0
-545 -86 22 0
-545 -86 70 0
-545 86 -22 -70 0
-545 -87 23 0
-545 -87 71 0
-545 87 -23 -71 0
-545 -88 24 0
-545 -88 72 0
-545 88 -24 -72 0
-545 -89 25 0
-545 -89 73 0
-545 89 -25 -73 0
-545 -90 26 0
-545 -90 74 0
-545 90 -26 -74 0
-545 -91 27 0
-545 -91 75 0
-545 91 -27 -75 0
-545 -92 28 0
-545 -92 76 0
-545 92 -28 -76 0
-545 -93 29 0
-545 -93 77 0
-545 93 -29 -77 0
-545 -94 30 0
-545 -94 78 0
-545 94 -30 -78 0
-545 -95 31 0
-545 -95 79 0
-545 95 -31 -79 0
-545 -96 32 0
-545 -96 80 0
-545 96 -32 -80 0
-546 -81 17 0
-546 -81 -65 0
-546 81 -17 65 0
-546 -82 18 0
-546 -82 -66 0
-546 82 -18 66 0
-546 -83 19 0
-546 -83 -67 0
-546 83 -19 67 0
-546 -84 20 0
-546 -84 -68 0
-546 84 -20 68 0
-546 -85 21 0
-546 -85 -69 0
-546 85 -21 69 0
-546 -86 22 0
-546 -86 -70 0
-546 86 -22 70 0
-546 -87 23 0
-546 -87 -71 0
-546 87 -23 71 0
-546 -88 24 0
-546 -88 -72 0
-546 88 -24 72 0
-546 -89 25 0
-546 -89 -73 0
-546 89 -25 73 0
-546 -90 26 0
-546 -90 -74 0
-546 90 -26 74 0
-546 -91 27 0
-546 -91 -75 0
-546 91 -27 75 0
-546 -92 28 0
-546 -92 -76 0
-546 92 -28 76 0
-546 -93 29 0
-546 -93 -77 0
-546 93 -29 77 0
-546 -94 30 0
-546 -94 -78 0
-546 94 -30 78 0
-546 -95 31 0
-546 -95 -79 0
-546 95 -31 79 0
-546 -96 32 0
-546 -96 -80 0
-546 96 -32 80 0
-547 -81 -17 0
-547 -81 65 0
-547 81 17 -65 0
-547 -82 -18 0
-547 -82 66 0
-547 82 18 -66 0
-547 -83 -19 0
-547 -83 67 0
-547 83 19 -67 0
-547 -84 -20 0
-547 -84 68 0
-547 84 20 -68 0
-547 -85 -21 0
-547 -85 69 0
-547 85 21 -69 0
-547 -86 -22 0
-547 -86 70 0
-547 86 22 -70 0
-547 -87 -23 0
-547 -87 71 0
-547 87 23 -71 0
-547 -88 -24 0
-547 -88 72 0
-547 88 24 -72 0
-547 -89 -25 0
-547 -89 73 0
-547 89 25 -73 0
-547 -90 -26 0
-547 -90 74 0
-547 90 26 -74 0
-547 -91 -27 0
-547 -91 75 0
-547 91 27 -75 0
-547 -92 -28 0
-547 -92 76 0
-547 92 28 -76 0
-547 -93 -29 0
-547 -93 77 0
-547 93 29 -77 0
-547 -94 -30 0
-547 -94 78 0
-547 94 30 -78 0
-547 -95 -31 0
-547 -95 79 0
-547 95 31 -79 0
-547 -96 -32 0
-547 -96 80 0
-547 96 32 -80 0
-548 -81 -17 0
-548 -81 -65 0
-548 81 17 65 0
-548 -82 -18 0
-548 -82 -66 0
-548 82 18 66 0
-548 -83 -19 0
-548 -83 -67 0
-548 83 19 67 0
-548 -84 -20 0
-548 -84 -68 0
-548 84 20 68 0
-548 -85 -21 0
-548 -85 -69 0
-548 85 21 69 0
-548 -86 -22 0
-548 -86 -70 0
-548 86 22 70 0
-548 -87 -23 0
-548 -87 -71 0
-548 87 23 71 0
-548 -88 -24 0
-548 -88 -72 0
-548 88 24 72 0
-548 -89 -25 0
-548 -89 -73 0
-548 89 25 73 0
-548 -90 -26 0
-548 -90 -74 0
-548 90 26 74 0
-548 -91 -27 0
-548 -91 -75 0
-548 91 27 75 0
-548 -92 -28 0
-548 -92 -76 0
-548 92 28 76 0
-548 -93 -29 0
-548 -93 -77 0
-548 93 29 77 0
-548 -94 -30 0
-548 -94 -78 0
-548 94 30 78 0
-548 -95 -31 0
-548 -95 -79 0
-548 95 31 79 0
-548 -96 -32 0
-548 -96 -80 0
-548 96 32 80 0
-549 -81 33 0
-549 -81 49 0
-549 81 -33 -49 0
-549 -82 34 0
-549 -82 50 0
-549 82 -34 -50 0
-549 -83 35 0
-549 -83 51 0
-549 83 -35 -51 0
-549 -84 36 0
-549 -84 52 0
-549 84 -36 -52 0
-549 -85 37 0
-549 -85 53 0
-549 85 -37 -53 0
-549 -86 38 0
-549 -86 54 0
-549 86 -38 -54 0
-549 -87 39 0
-549 -87 55 0
-549 87 -39 -55 0
-549 -88 40 0
-549 -88 56 0
-549 88 -40 -56 0
-549 -89 41 0
-549 -89 57 0
-549 89 -41 -57 0
-549 -90 42 0
-549 -90 58 0
-549 90 -42 -58 0
-549 -91 43 0
-549 -91 59 0
-549 91 -43 -59 0
-549 -92 44 0
-549 -92 60 0
-549 92 -44 -60 0
-549 -93 45 0
-549 -93 61 0
-549 93 -45 -61 0
-549 -94 46 0
-549 -94 62 0
-549 94 -46 -62 0
-549 -95 47 0
-549 -95 63 0
-549 95 -47 -63 0
-549 -96 48 0
-549 -96 64 0
-549 96 -48 -64 0
-550 -81 33 0
-550 -81 -49 0
-550 81 -33 49 0
-550 -82 34 0
-550 -82 -50 0
-550 82 -34 50 0
-550 -83 35 0
-550 -83 -51 0
-550 83 -35 51 0
-550 -84 36 0
-550 -84 -52 0
-550 84 -36 52 0
-550 -85 37 0
-550 -85 -53 0
-550 85 -37 53 0
-550 -86 38 0
-550 -86 -54 0
-550 86 -38 54 0
-550 -87 39 0
-550 -87 -55 0
-550 87 -39 55 0
-550 -88 40 0
-550 -88 -56 0
-550 88 -40 56 0
-550 -89 41 0
-550 -89 -57 0
-550 89 -41 57 0
-550 -90 42 0
-550 -90 -58 0
-550 90 -42 58 0
-550 -91 43 0
-550 -91 -59 0
-550 91 -43 59 0
-550 -92 44 0
-550 -92 -60 0
-550 92 -44 60 0
-550 -93 45 0
-550 -93 -61 0
-550 93 -45 61 0
-550 -94 46 0
-550 -94 -62 0
-550 94 -46 62 0
-550 -95 47 0
-550 -95 -63 0
-550 95 -47 63 0
-550 -96 48 0
-550 -96 -64 0
-550 96 -48 64 0
-551 -81 -33 0
-551 -81 49 0
-551 81 33 -49 0
-551 -82 -34 0
-551 -82 50 0
-551 82 34 -50 0
-551 -83 -35 0
-551 -83 51 0
-551 83 35 -51 0
-551 -84 -36 0
-551 -84 52 0
-551 84 36 -52 0
-551 -85 -37 0
-551 -85 53 0
-551 85 37 -53 0
-551 -86 -38 0
-551 -86 54 0
-551 86 38 -54 0
-551 -87 -39 0
-551 -87 55 0
-551 87 39 -55 0
-551 -88 -40 0
-551 -88 56 0
-551 88 40 -56 0
-551 -89 -41 0
-551 -89 57 0
-551 89 41 -57 0
-551 -90 -42 0
-551 -90 58 0
-551 90 42 -58 0
-551 -91 -43 0
-551 -91 59 0
-551 91 43 -59 0
-551 -92 -44 0
-551 -92 60 0
-551 92 44 -60 0
-551 -93 -45 0
-551 -93 61 0
-551 93 45 -61 0
-551 -94 -46 0
-551 -94 62 0
-551 94 46 -62 0
-551 -95 -47 0
-551 -95 63 0
-551 95 47 -63 0
-551 -96 -48 0
-551 -96 64 0
-551 96 48 -64 0
-552 -81 -33 0
-552 -81 -49 0
-552 81 33 49 0
-552 -82 -34 0
-552 -82 -50 0
-552 82 34 50 0
-552 -83 -35 0
-552 -83 -51 0
-552 83 35 51 0
-552 -84 -36 0
-552 -84 -52 0
-552 84 36 52 0
-552 -85 -37 0
-552 -85 -53 0
-552 85 37 53 0
-552 -86 -38 0
-552 -86 -54 0
-552 86 38 54 0
-552 -87 -39 0
-552 -87 -55 0
-552 87 39 55 0
-552 -88 -40 0
-552 -88 -56 0
-552 88 40 56 0
-552 -89 -41 0
-552 -89 -57 0
-552 89 41 57 0
-552 -90 -42 0
-552 -90 -58 0
-552 90 42 58 0
-552 -91 -43 0
-552 -91 -59 0
-552 91 43 59 0
-552 -92 -44 0
-552 -92 -60 0
-552 92 44 60 0
-552 -93 -45 0
-552 -93 -61 0
-552 93 45 61 0
-552 -94 -46 0
-552 -94 -62 0
-552 94 46 62 0
-552 -95 -47 0
-552 -95 -63 0
-552 95 47 63 0
-552 -96 -48 0
-552 -96 -64 0
-552 96 48 64 0
-553 -81 33 0
-553 -81 65 0
-553 81 -33 -65 0
-553 -82 34 0
-553 -82 66 0
-553 82 -34 -66 0
-553 -83 35 0
-553 -83 67 0
-553 83 -35 -67 0
-553 -84 36 0
-553 -84 68 0
-553 84 -36 -68 0
-553 -85 37 0
-553 -85 69 0
-553 85 -37 -69 0
-553 -86 38 0
-553 -86 70 0
-553 86 -38 -70 0
-553 -87 39 0
-553 -87 71 0
-553 87 -39 -71 0
-553 -88 40 0
-553 -88 72 0
-553 88 -40 -72 0
-553 -89 41 0
-553 -89 73 0
-553 89 -41 -73 0
-553 -90 42 0
-553 -90 74 0
-553 90 -42 -74 0
-553 -91 43 0
-553 -91 75 0
-553 91 -43 -75 0
-553 -92 44 0
-553 -92 76 0
-553 92 -44 -76 0
-553 -93 45 0
-553 -93 77 0
-553 93 -45 -77 0
-553 -94 46 0
-553 -94 78 0
-553 94 -46 -78 0
-553 -95 47 0
-553 -95 79 0
-553 95 -47 -79 0
-553 -96 48 0
-553 -96 80 0
-553 96 -48 -80 0
-554 -81 33 0
-554 -81 -65 0
-554 81 -33 65 0
-554 -82 34 0
-554 -82 -66 0
-554 82 -34 66 0
-554 -83 35 0
-554 -83 -67 0
-554 83 -35 67 0
-554 -84 36 0
-554 -84 -68 0
-554 84 -36 68 0
-554 -85 37 0
-554 -85 -69 0
-554 85 -37 69 0
-554 -86 38 0
-554 -86 -70 0
-554 86 -38 70 0
-554 -87 39 0
-554 -87 -71 0
-554 87 -39 71 0
-554 -88 40 0
-554 -88 -72 0
-554 88 -40 72 0
-554 -89 41 0
-554 -89 -73 0
-554 89 -41 73 0
-554 -90 42 0
-554 -90 -74 0
-554 90 -42 74 0
-554 -91 43 0
-554 -91 -75 0
-554 91 -43 75 0
-554 -92 44 0
-554 -92 -76 0
-554 92 -44 76 0
-554 -93 45 0
-554 -93 -77 0
-554 93 -45 77 0
-554 -94 46 0
-554 -94 -78 0
-554 94 -46 78 0
-554 -95 47 0
-554 -95 -79 0
-554 95 -47 79 0
-554 -96 48 0
-554 -96 -80 0
-554 96 -48 80 0
-555 -81 -33 0
-555 -81 65 0
-555 81 33 -65 0
-555 -82 -34 0
-555 -82 66 0
-555 82 34 -66 0
-555 -83 -35 0
-555 -83 67 0
-555 83 35 -67 0
-555 -84 -36 0
-555 -84 68 0
-555 84 36 -68 0
-555 -85 -37 0
-555 -85 69 0
-555 85 37 -69 0
-555 -86 -38 0
-555 -86 70 0
-555 86 38 -70 0
-555 -87 -39 0
-555 -87 71 0
-555 87 39 -71 0
-555 -88 -40 0
-555 -88 72 0
-555 88 40 -72 0
-555 -89 -41 0
-555 -89 73 0
-555 89 41 -73 0
-555 -90 -42 0
-555 -90 74 0
-555 90 42 -74 0
-555 -91 -43 0
-555 -91 75 0
-555 91 43 -75 0
-555 -92 -44 0
-555 -92 76 0
-555 92 44 -76 0
-555 -93 -45 0
-555 -93 77 0
-555 93 45 -77 0
-555 -94 -46 0
-555 -94 78 0
-555 94 46 -78 0
-555 -95 -47 0
-555 -95 79 0
-555 95 47 -79 0
-555 -96 -48 0
-555 -96 80 0
-555 96 48 -80 0
-556 -81 -33 0
-556 -81 -65 0
-556 81 33 65 0
-556 -82 -34 0
-556 -82 -66 0
-556 82 34 66 0
-556 -83 -35 0
-556 -83 -67 0
-556 83 35 67 0
-556 -84 -36 0
-556 -84 -68 0
-556 84 36 68 0
-556 -85 -37 0
-556 -85 -69 0
-556 85 37 69 0
-556 -86 -38 0
-556 -86 -70 0
-556 86 38 70 0
-556 -87 -39 0
-556 -87 -71 0
-556 87 39 71 0
-556 -88 -40 0
-556 -88 -72 0
-556 88 40 72 0
-556 -89 -41 0
-556 -89 -73 0
-556 89 41 73 0
-556 -90 -42 0
-556 -90 -74 0
-556 90 42 74 0
-556 -91 -43 0
-556 -91 -75 0
-556 91 43 75 0
-556 -92 -44 0
-556 -92 -76 0
-556 92 44 76 0
-556 -93 -45 0
-556 -93 -77 0
-556 93 45 77 0
-556 -94 -46 0
-556 -94 -78 0
-556 94 46 78 0
-556 -95 -47 0
-556 -95 -79 0
-556 95 47 79 0
-556 -96 -48 0
-556 -96 -80 0
-556 96 48 80 0
-557 -81 49 0
-557 -81 65 0
-557 81 -49 -65 0
-557 -82 50 0
-557 -82 66 0
-557 82 -50 -66 0
-557 -83 51 0
-557 -83 67 0
-557 83 -51 -67 0
-557 -84 52 0
-557 -84 68 0
-557 84 -52 -68 0
-557 -85 53 0
-557 -85 69 0
-557 85 -53 -69 0
-557 -86 54 0
-557 -86 70 0
-557 86 -54 -70 0
-557 -87 55 0
-557 -87 71 0
-557 87 -55 -71 0
-557 -88 56 0
-557 -88 72 0
-557 88 -56 -72 0
-557 -89 57 0
-557 -89 73 0
-557 89 -57 -73 0
-557 -90 58 0
-557 -90 74 0
-557 90 -58 -74 0
-557 -91 59 0
-557 -91 75 0
-557 91 -59 -75 0
-557 -92 60 0
-557 -92 76 0
-557 92 -60 -76 0
-557 -93 61 0
-557 -93 77 0
-557 93 -61 -77 0
-557 -94 62 0
-557 -94 78 0
-557 94 -62 -78 0
-557 -95 63 0
-557 -95 79 0
-557 95 -63 -79 0
-557 -96 64 0
-557 -96 80 0
-557 96 -64 -80 0
-558 -81 49 0
-558 -81 -65 0
-558 81 -49 65 0
-558 -82 50 0
-558 -82 -66 0
-558 82 -50 66 0
-558 -83 51 0
-558 -83 -67 0
-558 83 -51 67 0
-558 -84 52 0
-558 -84 -68 0
-558 84 -52 68 0
-558 -85 53 0
-558 -85 -69 0
-558 85 -53 69 0
-558 -86 54 0
-558 -86 -70 0
-558 86 -54 70 0
-558 -87 55 0
-558 -87 -71 0
-558 87 -55 71 0
-558 -88 56 0
-558 -88 -72 0
-558 88 -56 72 0
-558 -89 57 0
-558 -89 -73 0
-558 89 -57 73 0
-558 -90 58 0
-558 -90 -74 0
-558 90 -58 74 0
-558 -91 59 0
-558 -91 -75 0
-558 91 -59 75 0
-558 -92 60 0
-558 -92 -76 0
-558 92 -60 76 0
-558 -93 61 0
-558 -93 -77 0
-558 93 -61 77 0
-558 -94 62 0
-558 -94 -78 0
-558 94 -62 78 0
-558 -95 63 0
-558 -95 -79 0
-558 95 -63 79 0
-558 -96 64 0
-558 -96 -80 0
-558 96 -64 80 0
-559 -81 -49 0
-559 -81 65 0
-559 81 49 -65 0
-559 -82 -50 0
-559 -82 66 0
-559 82 50 -66 0
-559 -83 -51 0
-559 -83 67 0
-559 83 51 -67 0
-559 -84 -52 0
-559 -84 68 0
-559 84 52 -68 0
-559 -85 -53 0
-559 -85 69 0
-559 85 53 -69 0
-559 -86 -54 0
-559 -86 70 0
-559 86 54 -70 0
-559 -87 -55 0
-559 -87 71 0
-559 87 55 -71 0
-559 -88 -56 0
-559 -88 72 0
-559 88 56 -72 0
-559 -89 -57 0
-559 -89 73 0
-559 89 57 -73 0
-559 -90 -58 0
-559 -90 74 0
-559 90 58 -74 0
-559 -91 -59 0
-559 -91 75 0
-559 91 59 -75 0
-559 -92 -60 0
-559 -92 76 0
-559 92 60 -76 0
-559 -93 -61 0
-559 -93 77 0
-559 93 61 -77 0
-559 -94 -62 0
-559 -94 78 0
-559 94 62 -78 0
-559 -95 -63 0
-559 -95 79 0
-559 95 63 -79 0
-559 -96 -64 0
-559 -96 80 0
-559 96 64 -80 0
-560 -81 -49 0
-560 -81 -65 0
-560 81 49 65 0
-560 -82 -50 0
-560 -82 -66 0
-560 82 50 66 0
-560 -83 -51 0
-560 -83 -67 0
-560 83 51 67 0
-560 -84 -52 0
-560 -84 -68 0
-560 84 52 68 0
-560 -85 -53 0
-560 -85 -69 0
-560 85 53 69 0
-560 -86 -54 0
-560 -86 -70 0
-560 86 54 70 0
-560 -87 -55 0
-560 -87 -71 0
-560 87 55 71 0
-560 -88 -56 0
-560 -88 -72 0
-560 88 56 72 0
-560 -89 -57 0
-560 -89 -73 0
-560 89 57 73 0
-560 -90 -58 0
-560 -90 -74 0
-560 90 58 74 0
-560 -91 -59 0
-560 -91 -75 0
-560 91 59 75 0
-560 -92 -60 0
-560 -92 -76 0
-560 92 60 76 0
-560 -93 -61 0
-560 -93 -77 0
-560 93 61 77 0
-560 -94 -62 0
-560 -94 -78 0
-560 94 62 78 0
-560 -95 -63 0
-560 -95 -79 0
-560 95 63 79 0
-560 -96 -64 0
-560 -96 -80 0
-560 96 64 80 0
-97 -121 0
-97 -161 0
-97 -221 0
-97 -305 0
-97 -417 0
-121 -161 0
-121 -221 0
-121 -305 0
-121 -417 0
-161 -221 0
-161 -305 0
-161 -417 0
-221 -305 0
-221 -417 0
-305 -417 0
-98 -122 0
-98 -162 0
-98 -222 0
-98 -306 0
-98 -418 0
-122 -162 0
-122 -222 0
-122 -306 0
-122 -418 0
-162 -222 0
-162 -306 0
-162 -418 0
-222 -306 0
-222 -418 0
-306 -418 0
-99 -123 0
-99 -163 0
-99 -223 0
-99 -307 0
-99 -419 0
-123 -163 0
-123 -223 0
-123 -307 0
-123 -419 0
-163 -223 0
-163 -307 0
-163 -419 0
-223 -307 0
-223 -419 0
-307 -419 0
-100 -124 0
-100 -164 0
-100 -224 0
-100 -308 0
-100 -420 0
-124 -164 0
-124 -224 0
-124 -308 0
-124 -420 0
-164 -224 0
-164 -308 0
-164 -420 0
-224 -308 0
-224 -420 0
-308 -420 0
-101 -125 0
-101 -165 0
-101 -225 0
-101 -309 0
-101 -421 0
-125 -165 0
-125 -225 0
-125 -309 0
-125 -421 0
-165 -225 0
-165 -309 0
-165 -421 0
-225 -309 0
-225 -421 0
-309 -421 0
-102 -126 0
-102 -166 0
-102 -226 0
-102 -310 0
-102 -422 0
-126 -166 0
-126 -226 0
-126 -310 0
-126 -422 0
-166 -226 0
-166 -310 0
-166 -422 0
-226 -310 0
-226 -422 0
-310 -422 0
-103 -127 0
-103 -167 0
-103 -227 0
-103 -311 0
-103 -423 0
-127 -167 0
-127 -227 0
-127 -311 0
-127 -423 0
-167 -227 0
-167 -311 0
-167 -423 0
-227 -311 0
-227 -423 0
-311 -423 0
-104 -128 0
-104 -168 0
-104 -228 0
-104 -312 0
-104 -424 0
-128 -168 0
-128 -228 0
-128 -312 0
-128 -424 0
-168 -228 0
-168 -312 0
-168 -424 0
-228 -312 0
-228 -424 0
-312 -424 0
-105 -129 0
-105 -169 0
-105 -229 0
-105 -313 0
-105 -425 0
-129 -169 0
-129 -229 0
-129 -313 0
-129 -425 0
-169 -229 0
-169 -313 0
-169 -425 0
-229 -313 0
-229 -425 0
-313 -425 0
-106 -130 0
-106 -170 0
-106 -230 0
-106 -314 0
-106 -426 0
-130 -170 0
-130 -230 0
-130 -314 0
-130 -426 0
-170 -230 0
-170 -314 0
-170 -426 0
-230 -314 0
-230 -426 0
-314 -426 0
-107 -131 0
-107 -171 0
-107 -231 0
-107 -315 0
-107 -427 0
-131 -171 0
-131 -231 0
-131 -315 0
-131 -427 0
-171 -231 0
-171 -315 0
-171 -427 0
-231 -315 0
-231 -427 0
-315 -427 0
-108 -132 0
-108 -172 0
-108 -232 0
-108 -316 0
-108 -428 0
-132 -172 0
-132 -232 0
-132 -316 0
-132 -428 0
-172 -232 0
-172 -316 0
-172 -428 0
-232 -316 0
-232 -428 0
-316 -428 0
-109 -137 0
-109 -181 0
-109 -245 0
-109 -333 0
-109 -449 0
-137 -181 0
-137 -245 0
-137 -333 0
-137 -449 0
-181 -245 0
-181 -333 0
-181 -449 0
-245 -333 0
-245 -449 0
-333 -449 0
-110 -138 0
-110 -182 0
-110 -246 0
-110 -334 0
-110 -450 0
-138 -182 0
-138 -246 0
-138 -334 0
-138 -450 0
-182 -246 0
-182 -334 0
-182 -450 0
-246 -334 0
-246 -450 0
-334 -450 0
-111 -139 0
-111 -183 0
-111 -247 0
-111 -335 0
-111 -451 0
-139 -183 0
-139 -247 0
-139 -335 0
-139 -451 0
-183 -247 0
-183 -335 0
-183 -451 0
-247 -335 0
-247 -451 0
-335 -451 0
-112 -140 0
-112 -184 0
-112 -248 0
-112 -336 0
-112 -452 0
-140 -184 0
-140 -248 0
-140 -336 0
-140 -452 0
-184 -248 0
-184 -336 0
-184 -452 0
-248 -336 0
-248 -452 0
-336 -452 0
-113 -141 0
-113 -185 0
-113 -249 0
-113 -337 0
-113 -453 0
-141 -185 0
-141 -249 0
-141 -337 0
-141 -453 0
-185 -249 0
-185 -337 0
-185 -453 0
-249 -337 0
-249 -453 0
-337 -453 0
-114 -142 0
-114 -186 0
-114 -250 0
-114 -338 0
-114 -454 0
-142 -186 0
-142 -250 0
-142 -338 0
-142 -454 0
-186 -250 0
-186 -338 0
-186 -454 0
-250 -338 0
-250 -454 0
-338 -454 0
-115 -143 0
-115 -187 0
-115 -251 0
-115 -339 0
-115 -455 0
-143 -187 0
-143 -251 0
-143 -339 0
-143 -455 0
-187 -251 0
-187 -339 0
-187 -455 0
-251 -339 0
-251 -455 0
-339 -455 0
-116 -144 0
-116 -188 0
-116 -252 0
-116 -340 0
-116 -456 0
-144 -188 0
-144 -252 0
-144 -340 0
-144 -456 0
-188 -252 0
-188 -340 0
-188 -456 0
-252 -340 0
-252 -456 0
-340 -456 0
-117 -149 0
-117 -197 0
-117 -265 0
-117 -357 0
-117 -477 0
-149 -197 0
-149 -265 0
-149 -357 0
-149 -477 0
-197 -265 0
-197 -357 0
-197 -477 0
-265 -357 0
-265 -477 0
-357 -477 0
-118 -150 0
-118 -198 0
-118 -266 0
-118 -358 0
-118 -478 0
-150 -198 0
-150 -266 0
-150 -358 0
-150 -478 0
-198 -266 0
-198 -358 0
-198 -478 0
-266 -358 0
-266 -478 0
-358 -478 0
-119 -151 0
-119 -199 0
-119 -267 0
-119 -359 0
-119 -479 0
-151 -199 0
-151 -267 0
-151 -359 0
-151 -479 0
-199 -267 0
-199 -359 0
-199 -479 0
-267 -359 0
-267 -479 0
-359 -479 0
-120 -152 0
-120 -200 0
-120 -268 0
-120 -360 0
-120 -480 0
-152 -200 0
-152 -268 0
-152 -360 0
-152 -480 0
-200 -268 0
-200 -360 0
-200 -480 0
-268 -360 0
-268 -480 0
-360 -480 0
-133 -173 0
-133 -233 0
-133 -317 0
-133 -429 0
-173 -233 0
-173 -317 0
-173 -429 0
-233 -317 0
-233 -429 0
-317 -429 0
-134 -174 0
-134 -234 0
-134 -318 0
-134 -430 0
-174 -234 0
-174 -318 0
-174 -430 0
-234 -318 0
-234 -430 0
-318 -430 0
-135 -175 0
-135 -235 0
-135 -319 0
-135 -431 0
-175 -235 0
-175 -319 0
-175 -431 0
-235 -319 0
-235 -431 0
-319 -431 0
-136 -176 0
-136 -236 0
-136 -320 0
-136 -432 0
-176 -236 0
-176 -320 0
-176 -432 0
-236 -320 0
-236 -432 0
-320 -432 0
-145 -189 0
-145 -253 0
-145 -341 0
-145 -457 0
-189 -253 0
-189 -341 0
-189 -457 0
-253 -341 0
-253 -457 0
-341 -457 0
-146 -190 0
-146 -254 0
-146 -342 0
-146 -458 0
-190 -254 0
-190 -342 0
-190 -458 0
-254 -342 0
-254 -458 0
-342 -458 0
-147 -191 0
-147 -255 0
-147 -343 0
-147 -459 0
-191 -255 0
-191 -343 0
-191 -459 0
-255 -343 0
-255 -459 0
-343 -459 0
-148 -192 0
-148 -256 0
-148 -344 0
-148 -460 0
-192 -256 0
-192 -344 0
-192 -460 0
-256 -344 0
-256 -460 0
-344 -460 0
-153 -201 0
-153 -269 0
-153 -361 0
-153 -481 0
-201 -269 0
-201 -361 0
-201 -481 0
-269 -361 0
-269 -481 0
-361 -481 0
-154 -202 0
-154 -270 0
-154 -362 0
-154 -482 0
-202 -270 0
-202 -362 0
-202 -482 0
-270 -362 0
-270 -482 0
-362 -482 0
-155 -203 0
-155 -271 0
-155 -363 0
-155 -483 0
-203 -271 0
-203 -363 0
-203 -483 0
-271 -363 0
-271 -483 0
-363 -483 0
-156 -204 0
-156 -272 0
-156 -364 0
-156 -484 0
-204 -272 0
-204 -364 0
-204 -484 0
-272 -364 0
-272 -484 0
-364 -484 0
-157 -209 0
-157 -281 0
-157 -377 0
-157 -501 0
-209 -281 0
-209 -377 0
-209 -501 0
-281 -377 0
-281 -501 0
-377 -501 0
-158 -210 0
-158 -282 0
-158 -378 0
-158 -502 0
-210 -282 0
-210 -378 0
-210 -502 0
-282 -378 0
-282 -502 0
-378 -502 0
-159 -211 0
-159 -283 0
-159 -379 0
-159 -503 0
-211 -283 0
-211 -379 0
-211 -503 0
-283 -379 0
-283 -503 0
-379 -503 0
-160 -212 0
-160 -284 0
-160 -380 0
-160 -504 0
-212 -284 0
-212 -380 0
-212 -504 0
-284 -380 0
-284 -504 0
-380 -504 0
-177 -237 0
-177 -321 0
-177 -433 0
-237 -321 0
-237 -433 0
-321 -433 0
-178 -238 0
-178 -322 0
-178 -434 0
-238 -322 0
-238 -434 0
-322 -434 0
-179 -239 0
-179 -323 0
-179 -435 0
-239 -323 0
-239 -435 0
-323 -435 0
-180 -240 0
-180 -324 0
-180 -436 0
-240 -324 0
-240 -436 0
-324 -436 0
-193 -257 0
-193 -345 0
-193 -461 0
-257 -345 0
-257 -461 0
-345 -461 0
-194 -258 0
-194 -346 0
-194 -462 0
-258 -346 0
-258 -462 0
-346 -462 0
-195 -259 0
-195 -347 0
-195 -463 0
-259 -347 0
-259 -463 0
-347 -463 0
-196 -260 0
-196 -348 0
-196 -464 0
-260 -348 0
-260 -464 0
-348 -464 0
-205 -273 0
-205 -365 0
-205 -485 0
-273 -365 0
-273 -485 0
-365 -485 0
-206 -274 0
-206 -366 0
-206 -486 0
-274 -366 0
-274 -486 0
-366 -486 0
-207 -275 0
-207 -367 0
-207 -487 0
-275 -367 0
-275 -487 0
-367 -487 0
-208 -276 0
-208 -368 0
-208 -488 0
-276 -368 0
-276 -488 0
-368 -488 0
-213 -285 0
-213 -381 0
-213 -505 0
-285 -381 0
-285 -505 0
-381 -505 0
-214 -286 0
-214 -382 0
-214 -506 0
-286 -382 0
-286 -506 0
-382 -506 0
-215 -287 0
-215 -383 0
-215 -507 0
-287 -383 0
-287 -507 0
-383 -507 0
-216 -288 0
-216 -384 0
-216 -508 0
-288 -384 0
-288 -508 0
-384 -508 0
-217 -293 0
-217 -393 0
-217 -521 0
-293 -393 0
-293 -521 0
-393 -521 0
-218 -294 0
-218 -394 0
-218 -522 0
-294 -394 0
-294 -522 0
-394 -522 0
-219 -295 0
-219 -395 0
-219 -523 0
-295 -395 0
-295 -523 0
-395 -523 0
-220 -296 0
-220 -396 0
-220 -524 0
-296 -396 0
-296 -524 0
-396 -524 0
-241 -325 0
-241 -437 0
-325 -437 0
-242 -326 0
-242 -438 0
-326 -438 0
-243 -327 0
-243 -439 0
-327 -439 0
-244 -328 0
-244 -440 0
-328 -440 0
-261 -349 0
-261 -465 0
-349 -465 0
-262 -350 0
-262 -466 0
-350 -466 0
-263 -351 0
-263 -467 0
-351 -467 0
-264 -352 0
-264 -468 0
-352 -468 0
-277 -369 0
-277 -489 0
-369 -489 0
-278 -370 0
-278 -490 0
-370 -490 0
-279 -371 0
-279 -491 0
-371 -491 0
-280 -372 0
-280 -492 0
-372 -492 0
-289 -385 0
-289 -509 0
-385 -509 0
-290 -386 0
-290 -510 0
-386 -510 0
-291 -387 0
-291 -511 0
-387 -511 0
-292 -388 0
-292 -512 0
-388 -512 0
-297 -397 0
-297 -525 0
-397 -525 0
-298 -398 0
-298 -526 0
-398 -526 0
-299 -399 0
-299 -527 0
-399 -527 0
-300 -400 0
-300 -528 0
-400 -528 0
-301 -405 0
-301 -537 0
-405 -537 0
-302 -406 0
-302 -538 0
-406 -538 0
-303 -407 0
-303 -539 0
-407 -539 0
-304 -408 0
-304 -540 0
-408 -540 0
-329 -441 0
-330 -442 0
-331 -443 0
-332 -444 0
-353 -469 0
-354 -470 0
-355 -471 0
-356 -472 0
-373 -493 0
-374 -494 0
-375 -495 0
-376 -496 0
-389 -513 0
-390 -514 0
-391 -515 0
-392 -516 0
-401 -529 0
-402 -530 0
-403 -531 0
-404 -532 0
-409 -541 0
-410 -542 0
-411 -543 0
-412 -544 0
-413 -549 0
-414 -550 0
-415 -551 0
-416 -552 0
133 134 135 136 145 146 147 148 153 154 155 156 157 158 159 160 173 174 175 176 189 190 191 192 201 202 203 204 209 210 211 212 217 218 219 220 233 234 235 236 253 254 255 256 269 270 271 272 281 282 283 284 293 294 295 296 297 298 299 300 317 318 319 320 341 342 343 344 361 362 363 364 377 378 379 380 393 394 395 396 397 398 399 400 401 402 403 404 429 430 431 432 457 458 459 460 481 482 483 484 501 502 503 504 521 522 523 524 525 526 527 528 529 530 531 532 533 534 535 536 0
177 178 179 180 193 194 195 196 205 206 207 208 213 214 215 216 217 218 219 220 237 238 239 240 257 258 259 260 273 274 275 276 285 286 287 288 293 294 295 296 301 302 303 304 321 322 323 324 345 346 347 348 365 366 367 368 381 382 383 384 393 394 395 396 405 406 407 408 409 410 411 412 433 434 435 436 461 462 463 464 485 486 487 488 505 506 507 508 521 522 523 524 537 538 539 540 541 542 543 544 545 546 547 548 0
241 242 243 244 261 262 263 264 277 278 279 280 289 290 291 292 297 298 299 300 301 302 303 304 325 326 327 328 349 350 351 352 369 370 371 372 385 386 387 388 397 398 399 400 405 406 407 408 413 414 415 416 437 438 439 440 465 466 467 468 489 490 491 492 509 510 511 512 525 526 527 528 537 538 539 540 549 550 551 552 553 554 555 556 0
329 330 331 332 353 354 355 356 373 374 375 376 389 390 391 392 401 402 403 404 409 410 411 412 413 414 415 416 441 442 443 444 469 470 471 472 493 494 495 496 513 514 515 516 529 530 531 532 541 542 543 544 549 550 551 552 557 558 559 560 0
445 446 447 448 473 474 475 476 497 498 499 500 517 518 519 520 533 534 535 536 545 546 547 548 553 554 555 556 557 558 559 560 0
561 -81 0
-561 81 0
561 82 0
-561 -82 0
561 83 0
-561 -83 0
561 -84 0
-561 84 0
561 85 0
-561 -85 0
561 -86 0
-561 86 0
561 -87 0
-561 87 0
561 -88 0
-561 88 0
561 -89 0
-561 89 0
561 -90 0
-561 90 0
561 -91 0
-561 91 0
561 -92 0
-561 92 0
561 -93 0
-561 93 0
561 -94 0
-561 94 0
561 -95 0
-561 95 0
561 -96 0
-561 96 0
